 $system timlim=999888777
         mwords=100 $end
 $contrl exetyp=run
         runtyp=energy scftyp=rhf
         icharg=-1 mult=1 units=angs coord=unique
         maxit=50 ispher=1 qmttol=1d-6 icut=12 itol=22 $end
 $scf    dirscf=.t. diis=.t. soscf=.f.
         fdiff=.f. conv=1d-6
         npreo(1)=0,-1,1,9999 $end
 $elpot  iepot=1 where=points $end
 $basis  gbasis=n311 ngauss=6
         ndfunc=1 npfunc=1 diffsp=.t. diffs=.t. $end
 $DATA
TS1a_hfd_irc200_all_revmov.pdb
C1
P     15.0    -0.04200   0.01600  -0.02600 
O      8.0    -0.11400   0.61500   1.40600 
O      8.0     0.95200   0.58400  -0.92200 
F      9.0     0.26000  -1.46700   0.34400 
O      8.0    -1.47600  -0.16200  -0.59900 
C      6.0    -2.15200   0.85600  -1.37700 
H      1.0    -2.37400   1.72800  -0.76700 
H      1.0    -1.52800   1.11200  -2.22300 
H      1.0    -3.05900   0.38000  -1.71900 
C      6.0    -0.08000   2.03800   1.67300 
H      1.0    -0.02400   2.11200   2.74900 
H      1.0     0.81600   2.45000   1.22900 
H      1.0    -0.97400   2.52700   1.29300 
O      8.0    -2.54700   3.31600   0.39600 
H      1.0    -3.15400   4.03300   0.53000 
 $END
 $POINTS
ANGS 3129
  -2.452  -0.906   2.032
  -2.292  -1.247   2.032
  -2.084  -1.561   2.032
   2.511  -0.360   2.032
   2.752   0.016   1.730
   2.727   0.388   1.730
  -2.346  -1.565   1.730
   2.727  -0.356   1.730
   2.931   0.016   1.406
   2.908   0.389   1.406
   2.838   0.755   1.406
   2.838  -0.723   1.406
   2.908  -0.357   1.406
   3.073   0.016   1.064
   3.050   0.391   1.064
   2.982   0.761   1.064
   2.982  -0.729   1.064
   3.050  -0.359   1.064
   3.175   0.016   0.708
   3.089  -0.726   0.708
   3.154  -0.358   0.708
   3.152  -0.727   0.343
  -0.509  -2.270  -2.359
   1.284  -1.904  -2.359
  -0.605  -1.963  -2.606
  -0.232  -2.033  -2.606
   0.148  -2.033  -2.606
   0.521  -1.963  -2.606
   0.875  -1.826  -2.606
  -0.326  -1.717  -2.820
   0.053  -1.737  -2.820
   0.428  -1.676  -2.820
   0.780  -1.535  -2.820
  -0.413  -1.367  -2.999
  -0.042  -1.416  -2.999
   0.329  -1.367  -2.999
  -0.231  -1.057  -3.141
   0.147  -1.057  -3.141
  -0.576  -0.186   4.049
  -0.275  -0.296   4.049
   0.047  -0.296   4.049
   0.348  -0.186   4.049
  -1.166   0.008   3.929
  -0.973  -0.244   3.929
  -0.721  -0.437   3.929
  -0.428  -0.558   3.929
  -0.114  -0.600   3.929
   0.200  -0.558   3.929
   0.493  -0.437   3.929
   0.745  -0.244   3.929
  -1.526   0.139   3.777
  -1.390  -0.153   3.777
  -1.196  -0.409   3.777
  -0.950  -0.618   3.777
  -0.665  -0.769   3.777
  -0.355  -0.855   3.777
  -0.033  -0.873   3.777
   0.285  -0.820   3.777
   0.584  -0.701   3.777
   0.850  -0.520   3.777
   1.072  -0.287   3.777
   1.238  -0.011   3.777
  -1.830   0.294   3.595
  -1.742  -0.016   3.595
  -1.598  -0.304   3.595
  -1.404  -0.561   3.595
  -1.166  -0.778   3.595
  -0.892  -0.948   3.595
  -0.592  -1.064   3.595
  -0.275  -1.123   3.595
   0.047  -1.123   3.595
   0.364  -1.064   3.595
   0.664  -0.948   3.595
   0.938  -0.778   3.595
   1.176  -0.561   3.595
   1.370  -0.304   3.595
   1.514  -0.016   3.595
  -2.036   0.141   3.386
  -1.935  -0.161   3.386
  -1.787  -0.443   3.386
  -1.596  -0.698   3.386
  -1.366  -0.919   3.386
  -1.104  -1.100   3.386
  -0.816  -1.236   3.386
  -0.510  -1.325   3.386
  -0.194  -1.363   3.386
   0.125  -1.350   3.386
   0.437  -1.287   3.386
   0.735  -1.174   3.386
   1.011  -1.014   3.386
   1.258  -0.813   3.386
   1.469  -0.574   3.386
   1.639  -0.305   3.386
   1.764  -0.012   3.386
   1.840   0.297   3.386
  -2.251   0.139   3.152
  -2.159  -0.167   3.152
  -2.023  -0.456   3.152
  -1.847  -0.723   3.152
  -1.633  -0.961   3.152
  -1.388  -1.165   3.152
  -1.115  -1.332   3.152
  -0.821  -1.457   3.152
  -0.512  -1.538   3.152
   1.026  -1.254   3.152
   1.286  -1.068   3.152
   1.516  -0.846   3.152
   1.712  -0.593   3.152
   1.868  -0.314   3.152
   1.982  -0.016   3.152
   2.052   0.296   3.152
  -2.480   0.457   2.896
  -2.437   0.143   2.896
  -2.354  -0.163   2.896
  -2.230  -0.454   2.896
  -2.069  -0.727   2.896
  -1.872  -0.975   2.896
  -1.645  -1.195   2.896
  -1.390  -1.383   2.896
  -1.112  -1.536   2.896
   1.534  -1.089   2.896
   1.747  -0.854   2.896
   1.926  -0.593   2.896
   2.069  -0.311   2.896
   2.173  -0.011   2.896
   2.236   0.299   2.896
  -2.617   0.299   2.621
  -2.557  -0.012   2.621
  -2.460  -0.314   2.621
  -2.325  -0.600   2.621
  -2.155  -0.868   2.621
  -1.953  -1.112   2.621
  -1.722  -1.329   2.621
   1.927  -0.868   2.621
   2.097  -0.600   2.621
   2.232  -0.314   2.621
   2.329  -0.012   2.621
   2.389   0.299   2.621
  -2.757   0.615   2.331
  -2.738   0.296   2.331
  -2.680  -0.017   2.331
  -2.585  -0.322   2.331
  -2.454  -0.613   2.331
  -2.289  -0.886   2.331
  -2.092  -1.138   2.331
   2.226  -0.613   2.331
   2.357  -0.322   2.331
   2.452  -0.017   2.331
   2.510   0.296   2.331
  -2.844   0.615   2.029
  -2.825   0.298   2.029
  -2.770  -0.015   2.029
  -2.679  -0.319   2.029
  -2.553  -0.610   2.029
   2.542  -0.015   2.029
   2.597   0.298   2.029
   3.141   0.584   0.824
   3.118   0.903   0.824
   3.323   0.584   0.568
   3.302   0.900   0.568
   3.239   1.210   0.568
   3.239  -0.042   0.568
   3.302   0.268   0.568
   3.475   0.584   0.293
   3.455   0.900   0.293
   3.395   1.211   0.293
   3.298   1.513   0.293
   3.163   1.799   0.293
   3.298  -0.345   0.293
   3.395  -0.043   0.293
   3.455   0.268   0.293
   3.595   0.584   0.003
   3.576   0.903   0.003
   3.518   1.216   0.003
   3.423   1.521   0.003
   3.292   1.812   0.003
   3.127   2.085   0.003
   3.127  -0.917   0.003
   3.292  -0.644   0.003
   3.423  -0.353   0.003
   3.518  -0.048   0.003
   3.576   0.265   0.003
   3.682   0.584  -0.299
   3.663   0.901  -0.299
   3.608   1.214  -0.299
   3.517   1.518  -0.299
   3.391   1.809  -0.299
   3.233   2.084  -0.299
   3.043   2.339  -0.299
   3.043  -1.171  -0.299
   3.233  -0.916  -0.299
   3.391  -0.641  -0.299
   3.517  -0.350  -0.299
   3.608  -0.046  -0.299
   3.663   0.267  -0.299
   3.734   0.584  -0.608
   3.716   0.901  -0.608
   3.662   1.214  -0.608
   3.573   1.519  -0.608
   3.449   1.812  -0.608
   3.293   2.088  -0.608
   3.106   2.345  -0.608
   2.891   2.579  -0.608
   2.651   2.787  -0.608
   3.106  -1.177  -0.608
   3.293  -0.920  -0.608
   3.449  -0.644  -0.608
   3.573  -0.351  -0.608
   3.662  -0.046  -0.608
   3.716   0.267  -0.608
   3.752   0.584  -0.922
   3.734   0.898  -0.922
   3.682   1.207  -0.922
   3.595   1.509  -0.922
   3.475   1.799  -0.922
   3.323   2.074  -0.922
   3.141   2.330  -0.922
   2.932   2.564  -0.922
   2.698   2.773  -0.922
   2.442   2.955  -0.922
   2.167   3.107  -0.922
   2.932  -1.396  -0.922
   3.141  -1.162  -0.922
   3.323  -0.906  -0.922
   3.475  -0.631  -0.922
   3.595  -0.341  -0.922
   3.682  -0.039  -0.922
   3.734   0.270  -0.922
   3.734   0.584  -1.235
   3.716   0.901  -1.235
   3.662   1.214  -1.235
   3.573   1.519  -1.235
   3.449   1.812  -1.235
   3.293   2.088  -1.235
   3.106   2.345  -1.235
   2.891   2.579  -1.235
   2.651   2.787  -1.235
   2.389   2.967  -1.235
   2.108   3.115  -1.235
   1.812   3.230  -1.235
   1.505   3.311  -1.235
   1.190   3.356  -1.235
   0.873   3.365  -1.235
   0.556   3.338  -1.235
   0.245   3.275  -1.235
  -0.057   3.177  -1.235
   2.891  -1.411  -1.235
   3.106  -1.177  -1.235
   3.293  -0.920  -1.235
   3.449  -0.644  -1.235
   3.573  -0.351  -1.235
   3.662  -0.046  -1.235
   3.716   0.267  -1.235
   3.682   0.584  -1.545
   3.663   0.901  -1.545
   3.608   1.214  -1.545
   3.517   1.518  -1.545
   3.391   1.809  -1.545
   3.233   2.084  -1.545
   3.043   2.339  -1.545
   2.825   2.570  -1.545
   2.582   2.774  -1.545
   2.317   2.948  -1.545
   2.033   3.091  -1.545
   1.735   3.199  -1.545
   1.426   3.272  -1.545
   1.111   3.309  -1.545
   0.793   3.309  -1.545
   0.478   3.272  -1.545
   0.169   3.199  -1.545
   2.582  -1.606  -1.545
   2.825  -1.402  -1.545
   3.043  -1.171  -1.545
   3.233  -0.916  -1.545
   3.391  -0.641  -1.545
   3.517  -0.350  -1.545
   3.608  -0.046  -1.545
   3.663   0.267  -1.545
   3.595   0.584  -1.847
   3.576   0.903  -1.847
   3.518   1.216  -1.847
   3.423   1.521  -1.847
   3.292   1.812  -1.847
   3.127   2.085  -1.847
   2.930   2.337  -1.847
   2.705   2.562  -1.847
   2.453   2.759  -1.847
   2.180   2.924  -1.847
   1.889   3.055  -1.847
   1.584   3.150  -1.847
   1.271   3.208  -1.847
   0.952   3.227  -1.847
   0.633   3.208  -1.847
   0.320   3.150  -1.847
   2.180  -1.756  -1.847
   2.453  -1.591  -1.847
   2.705  -1.394  -1.847
   2.930  -1.169  -1.847
   3.127  -0.917  -1.847
   3.292  -0.644  -1.847
   3.423  -0.353  -1.847
   3.518  -0.048  -1.847
   3.576   0.265  -1.847
   3.475   0.584  -2.137
   3.455   0.900  -2.137
   3.395   1.211  -2.137
   3.298   1.513  -2.137
   3.163   1.799  -2.137
   2.993   2.067  -2.137
   2.791   2.311  -2.137
   2.560   2.528  -2.137
   2.304   2.714  -2.137
   2.026   2.867  -2.137
   1.732   2.983  -2.137
   1.425   3.062  -2.137
   1.110   3.102  -2.137
   0.794   3.102  -2.137
   0.479   3.062  -2.137
   1.732  -1.815  -2.137
   2.026  -1.699  -2.137
   2.304  -1.546  -2.137
   2.560  -1.360  -2.137
   2.791  -1.143  -2.137
   2.993  -0.899  -2.137
   3.163  -0.631  -2.137
   3.298  -0.345  -2.137
   3.395  -0.043  -2.137
   3.455   0.268  -2.137
   3.323   0.584  -2.412
   3.302   0.900  -2.412
   3.239   1.210  -2.412
   3.135   1.510  -2.412
   2.992   1.792  -2.412
   2.813   2.053  -2.412
   2.600   2.288  -2.412
   2.358   2.493  -2.412
   2.091   2.663  -2.412
   1.804   2.796  -2.412
   1.502   2.890  -2.412
   1.189   2.943  -2.412
   0.873   2.954  -2.412
   0.558   2.922  -2.412
   1.502  -1.722  -2.412
   1.804  -1.628  -2.412
   2.091  -1.495  -2.412
   2.358  -1.325  -2.412
   2.600  -1.120  -2.412
   2.813  -0.885  -2.412
   2.992  -0.624  -2.412
   3.135  -0.342  -2.412
   3.239  -0.042  -2.412
   3.302   0.268  -2.412
   3.141   0.584  -2.668
   3.118   0.903  -2.668
   3.048   1.215  -2.668
   2.934   1.513  -2.668
   2.778   1.792  -2.668
   2.582   2.045  -2.668
   2.352   2.267  -2.668
   2.092   2.453  -2.668
   1.808   2.599  -2.668
   1.506   2.702  -2.668
   1.191   2.760  -2.668
   0.872   2.772  -2.668
   0.554   2.737  -2.668
   1.191  -1.592  -2.668
   1.506  -1.534  -2.668
   1.808  -1.431  -2.668
   2.092  -1.285  -2.668
   2.352  -1.099  -2.668
   2.582  -0.877  -2.668
   2.778  -0.624  -2.668
   2.934  -0.345  -2.668
   3.048  -0.047  -2.668
   3.118   0.265  -2.668
   2.932   0.584  -2.902
   2.906   0.902  -2.902
   2.830   1.211  -2.902
   2.705   1.504  -2.902
   2.535   1.773  -2.902
   2.324   2.012  -2.902
   2.077   2.213  -2.902
   1.801   2.373  -2.902
   1.503   2.486  -2.902
   1.191   2.549  -2.902
   0.872   2.562  -2.902
   0.556   2.524  -2.902
   0.872  -1.394  -2.902
   1.191  -1.381  -2.902
   1.503  -1.318  -2.902
   1.801  -1.205  -2.902
   2.077  -1.045  -2.902
   2.324  -0.844  -2.902
   2.535  -0.605  -2.902
   2.705  -0.336  -2.902
   2.830  -0.043  -2.902
   2.906   0.266  -2.902
   2.698   0.584  -3.111
   2.668   0.905  -3.111
   2.580   1.215  -3.111
   2.436   1.503  -3.111
   2.242   1.760  -3.111
   2.004   1.977  -3.111
   1.730   2.147  -3.111
   1.430   2.263  -3.111
   1.113   2.322  -3.111
   0.791   2.322  -3.111
   0.474  -1.095  -3.111
   0.791  -1.154  -3.111
   1.113  -1.154  -3.111
   1.430  -1.095  -3.111
   1.730  -0.979  -3.111
   2.004  -0.809  -3.111
   2.242  -0.592  -3.111
   2.436  -0.335  -3.111
   2.580  -0.047  -3.111
   2.668   0.263  -3.111
   2.442   0.584  -3.293
   2.407   0.904  -3.293
   2.304   1.210  -3.293
   2.138   1.486  -3.293
   1.916   1.719  -3.293
   1.650   1.900  -3.293
   1.351   2.019  -3.293
   1.033   2.072  -3.293
   0.711   2.054  -3.293
   0.116  -0.649  -3.293
   0.401  -0.800  -3.293
   0.711  -0.886  -3.293
   1.033  -0.904  -3.293
   1.351  -0.851  -3.293
   1.650  -0.732  -3.293
   1.916  -0.551  -3.293
   2.138  -0.318  -3.293
   2.304  -0.042  -3.293
   2.407   0.264  -3.293
   2.167   0.584  -3.445
   2.125   0.898  -3.445
   2.004   1.191  -3.445
   1.811   1.443  -3.445
   1.559   1.636  -3.445
   1.266   1.757  -3.445
   0.952   1.799  -3.445
   0.345  -0.468  -3.445
   0.638  -0.589  -3.445
   0.952  -0.631  -3.445
   1.266  -0.589  -3.445
   1.559  -0.468  -3.445
   1.811  -0.275  -3.445
   2.004  -0.023  -3.445
   2.125   0.270  -3.445
   1.877   0.584  -3.565
   1.821   0.900  -3.565
   1.660   1.178  -3.565
   1.414   1.385  -3.565
   1.113   1.495  -3.565
   0.791   1.495  -3.565
   0.490  -0.217  -3.565
   0.791  -0.327  -3.565
   1.113  -0.327  -3.565
   1.414  -0.217  -3.565
   1.660  -0.010  -3.565
   1.821   0.268  -3.565
   1.575   0.584  -3.652
   1.492   0.896  -3.652
   1.264   1.124  -3.652
   0.952   1.207  -3.652
   0.640   0.044  -3.652
   0.952  -0.039  -3.652
   1.264   0.044  -3.652
   1.492   0.272  -3.652
   1.266   0.584  -3.704
   1.109   0.856  -3.704
   0.795   0.856  -3.704
   0.638   0.584  -3.704
   0.795   0.312  -3.704
   1.109   0.312  -3.704
   0.952   0.584  -3.722
   0.581  -1.467   3.196
   0.099  -1.745   3.196
   0.421  -1.745   3.196
   0.899  -1.467   3.142
  -0.293  -1.786   3.142
  -0.059  -2.020   3.142
   0.260  -2.106   3.142
   0.579  -2.020   3.142
   0.813  -1.786   3.142
   1.208  -1.467   3.053
  -0.631  -1.791   3.053
  -0.466  -2.076   3.053
  -0.214  -2.288   3.053
   0.095  -2.400   3.053
   0.425  -2.401   3.053
   0.734  -2.288   3.053
   0.986  -2.076   3.053
   1.151  -1.791   3.053
   1.505  -1.467   2.930
   1.463  -1.145   2.930
  -0.943  -1.789   2.930
  -0.818  -2.090   2.930
  -0.621  -2.348   2.930
  -0.363  -2.545   2.930
  -0.062  -2.670   2.930
   0.260  -2.712   2.930
   0.582  -2.670   2.930
   0.883  -2.545   2.930
   1.141  -2.348   2.930
   1.338  -2.090   2.930
   1.463  -1.789   2.930
   1.787  -1.467   2.774
   1.751  -1.139   2.774
  -1.258  -1.632   2.774
  -1.187  -1.955   2.774
  -1.048  -2.254   2.774
  -0.849  -2.517   2.774
  -0.597  -2.731   2.774
  -0.305  -2.885   2.774
   0.013  -2.974   2.774
   0.343  -2.992   2.774
   0.668  -2.938   2.774
   0.975  -2.816   2.774
   1.249  -2.631   2.774
   1.476  -2.391   2.774
   1.646  -2.108   2.774
   1.751  -1.795   2.774
   2.049  -1.467   2.588
   2.019  -1.138   2.588
  -1.499  -1.796   2.588
  -1.409  -2.113   2.588
  -1.261  -2.409   2.588
  -1.062  -2.673   2.588
  -0.818  -2.895   2.588
  -0.538  -3.069   2.588
  -0.230  -3.188   2.588
   0.095  -3.249   2.588
   0.425  -3.249   2.588
   0.750  -3.188   2.588
   1.058  -3.069   2.588
   1.338  -2.895   2.588
   1.582  -2.673   2.588
   1.781  -2.409   2.588
   1.929  -2.113   2.588
   2.019  -1.796   2.588
   2.289  -1.467   2.373
   2.263  -1.141   2.373
   2.185  -0.824   2.373
  -1.763  -1.630   2.373
  -1.710  -1.953   2.373
  -1.607  -2.262   2.373
  -1.455  -2.552   2.373
  -1.259  -2.813   2.373
  -1.023  -3.039   2.373
  -0.755  -3.225   2.373
  -0.460  -3.365   2.373
  -0.146  -3.455   2.373
   0.178  -3.495   2.373
   0.505  -3.482   2.373
   0.825  -3.416   2.373
   1.130  -3.300   2.373
   1.413  -3.137   2.373
   1.666  -2.931   2.373
   1.882  -2.686   2.373
   2.057  -2.410   2.373
   2.185  -2.110   2.373
   2.263  -1.793   2.373
   2.504  -1.467   2.133
   2.480  -1.140   2.133
   2.409  -0.821   2.133
  -1.978  -1.631   2.133
  -1.930  -1.955   2.133
  -1.836  -2.269   2.133
  -1.697  -2.565   2.133
  -1.516  -2.838   2.133
  -1.297  -3.082   2.133
  -1.046  -3.292   2.133
  -0.766  -3.463   2.133
  -0.465  -3.591   2.133
  -0.148  -3.674   2.133
   0.178  -3.709   2.133
   0.505  -3.697   2.133
   0.828  -3.638   2.133
   1.138  -3.532   2.133
   1.429  -3.382   2.133
   1.695  -3.192   2.133
   1.931  -2.964   2.133
   2.131  -2.705   2.133
   2.292  -2.419   2.133
   2.409  -2.113   2.133
   2.480  -1.794   2.133
   2.690  -1.467   1.871
   2.668  -1.143   1.871
   2.604  -0.825   1.871
  -2.121  -1.951   1.871
  -2.036  -2.264   1.871
  -1.909  -2.563   1.871
  -1.743  -2.842   1.871
  -1.542  -3.097   1.871
  -1.309  -3.323   1.871
  -1.048  -3.515   1.871
  -0.763  -3.671   1.871
  -0.460  -3.788   1.871
  -0.144  -3.863   1.871
   0.179  -3.896   1.871
   0.503  -3.885   1.871
   0.823  -3.831   1.871
   1.133  -3.735   1.871
   1.428  -3.598   1.871
   1.701  -3.423   1.871
   1.949  -3.214   1.871
   2.167  -2.973   1.871
   2.351  -2.705   1.871
   2.497  -2.416   1.871
   2.604  -2.109   1.871
   2.668  -1.791   1.871
   2.846  -1.467   1.589
   2.825  -1.143   1.589
   2.765  -0.824   1.589
  -2.305  -1.791   1.589
  -2.245  -2.110   1.589
  -2.144  -2.419   1.589
  -2.006  -2.713   1.589
  -1.832  -2.987   1.589
  -1.625  -3.237   1.589
  -1.388  -3.459   1.589
  -1.126  -3.650   1.589
  -0.841  -3.807   1.589
  -0.539  -3.926   1.589
  -0.225  -4.007   1.589
   0.098  -4.048   1.589
   0.422  -4.048   1.589
   0.745  -4.007   1.589
   1.059  -3.926   1.589
   1.361  -3.807   1.589
   1.646  -3.650   1.589
   1.908  -3.459   1.589
   2.145  -3.237   1.589
   2.352  -2.987   1.589
   2.526  -2.713   1.589
   2.664  -2.419   1.589
   2.765  -2.110   1.589
   2.825  -1.791   1.589
   2.969  -1.467   1.292
   2.949  -1.140   1.292
   2.890  -0.819   1.292
  -2.370  -2.115   1.292
  -2.273  -2.428   1.292
  -2.139  -2.726   1.292
  -1.969  -3.006   1.292
  -1.768  -3.263   1.292
  -1.536  -3.495   1.292
  -1.279  -3.696   1.292
  -0.999  -3.866   1.292
  -0.701  -4.000   1.292
  -0.388  -4.097   1.292
  -0.067  -4.156   1.292
   0.260  -4.176   1.292
   0.587  -4.156   1.292
   0.908  -4.097   1.292
   1.221  -4.000   1.292
   1.519  -3.866   1.292
   1.799  -3.696   1.292
   2.056  -3.495   1.292
   2.288  -3.263   1.292
   2.489  -3.006   1.292
   2.659  -2.726   1.292
   2.793  -2.428   1.292
   2.890  -2.115   1.292
   2.949  -1.794   1.292
   3.058  -1.467   0.983
   3.039  -1.142   0.983
  -2.369  -2.424   0.983
  -2.240  -2.723   0.983
  -2.078  -3.005   0.983
  -1.883  -3.266   0.983
  -1.660  -3.502   0.983
  -1.411  -3.711   0.983
  -1.139  -3.890   0.983
  -0.848  -4.036   0.983
  -0.542  -4.147   0.983
  -0.226  -4.223   0.983
   0.097  -4.260   0.983
   0.423  -4.260   0.983
   0.746  -4.223   0.983
   1.062  -4.147   0.983
   1.368  -4.036   0.983
   1.659  -3.890   0.983
   1.931  -3.711   0.983
   2.180  -3.502   0.983
   2.403  -3.266   0.983
   2.598  -3.005   0.983
   2.760  -2.723   0.983
   2.889  -2.424   0.983
   2.983  -2.112   0.983
   3.039  -1.792   0.983
   3.112  -1.467   0.665
   3.093  -1.142   0.665
  -2.367  -2.577   0.665
  -2.223  -2.869   0.665
  -2.047  -3.143   0.665
  -1.841  -3.395   0.665
  -1.608  -3.622   0.665
  -1.350  -3.821   0.665
  -1.071  -3.989   0.665
  -0.775  -4.125   0.665
  -0.465  -4.225   0.665
  -0.146  -4.290   0.665
   0.179  -4.318   0.665
   0.504  -4.308   0.665
   0.826  -4.262   0.665
   1.141  -4.179   0.665
   1.445  -4.061   0.665
   1.733  -3.909   0.665
   2.002  -3.725   0.665
   2.248  -3.512   0.665
   2.468  -3.272   0.665
   2.659  -3.009   0.665
   2.819  -2.725   0.665
   2.946  -2.425   0.665
   3.038  -2.113   0.665
   3.093  -1.792   0.665
   3.130  -1.467   0.344
   3.112  -1.146   0.344
  -2.326  -2.712   0.344
  -2.170  -2.994   0.344
  -1.984  -3.256   0.344
  -1.769  -3.496   0.344
  -1.529  -3.711   0.344
  -1.267  -3.897   0.344
  -0.985  -4.053   0.344
  -0.688  -4.176   0.344
  -0.379  -4.265   0.344
  -0.061  -4.319   0.344
   0.260  -4.337   0.344
   0.581  -4.319   0.344
   0.899  -4.265   0.344
   1.208  -4.176   0.344
   1.505  -4.053   0.344
   1.787  -3.897   0.344
   2.049  -3.711   0.344
   2.289  -3.496   0.344
   2.504  -3.256   0.344
   2.690  -2.994   0.344
   2.846  -2.712   0.344
   2.969  -2.415   0.344
   3.058  -2.106   0.344
   3.112  -1.788   0.344
   3.112  -1.467   0.023
   3.093  -1.142   0.023
  -2.223  -2.869   0.023
  -2.047  -3.143   0.023
  -1.841  -3.395   0.023
  -1.608  -3.622   0.023
  -1.350  -3.821   0.023
  -1.071  -3.989   0.023
  -0.775  -4.125   0.023
  -0.465  -4.225   0.023
  -0.146  -4.290   0.023
   0.179  -4.318   0.023
   0.504  -4.308   0.023
   0.826  -4.262   0.023
   1.141  -4.179   0.023
   1.445  -4.061   0.023
   1.733  -3.909   0.023
   2.002  -3.725   0.023
   2.248  -3.512   0.023
   2.468  -3.272   0.023
   2.659  -3.009   0.023
   2.819  -2.725   0.023
   2.946  -2.425   0.023
   3.038  -2.113   0.023
   3.093  -1.792   0.023
   3.058  -1.467  -0.295
  -2.078  -3.005  -0.295
  -1.883  -3.266  -0.295
  -1.660  -3.502  -0.295
  -1.411  -3.711  -0.295
  -1.139  -3.890  -0.295
  -0.848  -4.036  -0.295
  -0.542  -4.147  -0.295
  -0.226  -4.223  -0.295
   0.097  -4.260  -0.295
   0.423  -4.260  -0.295
   0.746  -4.223  -0.295
   1.062  -4.148  -0.295
   1.368  -4.036  -0.295
   1.659  -3.890  -0.295
   1.931  -3.711  -0.295
   2.180  -3.502  -0.295
   2.403  -3.266  -0.295
   2.598  -3.005  -0.295
   2.760  -2.723  -0.295
   2.889  -2.424  -0.295
   2.983  -2.112  -0.295
   3.039  -1.792  -0.295
   2.969  -1.467  -0.604
  -1.969  -3.006  -0.604
  -1.768  -3.263  -0.604
  -1.536  -3.495  -0.604
  -1.279  -3.696  -0.604
  -0.999  -3.866  -0.604
  -0.701  -4.000  -0.604
  -0.388  -4.097  -0.604
  -0.067  -4.156  -0.604
   0.260  -4.176  -0.604
   0.587  -4.156  -0.604
   0.908  -4.097  -0.604
   1.221  -4.000  -0.604
   1.519  -3.866  -0.604
   1.799  -3.696  -0.604
   2.056  -3.495  -0.604
   2.288  -3.263  -0.604
   2.489  -3.006  -0.604
   2.659  -2.726  -0.604
   2.793  -2.428  -0.604
   2.890  -2.115  -0.604
   2.949  -1.794  -0.604
  -1.832  -2.987  -0.901
  -1.625  -3.237  -0.901
  -1.388  -3.459  -0.901
  -1.126  -3.650  -0.901
  -0.841  -3.807  -0.901
  -0.539  -3.926  -0.901
  -0.225  -4.007  -0.901
   0.098  -4.048  -0.901
   0.422  -4.048  -0.901
   0.745  -4.007  -0.901
   1.059  -3.926  -0.901
   1.361  -3.807  -0.901
   1.646  -3.650  -0.901
   1.908  -3.459  -0.901
   2.145  -3.237  -0.901
   2.352  -2.987  -0.901
   2.526  -2.713  -0.901
   2.664  -2.419  -0.901
   2.765  -2.110  -0.901
   2.825  -1.791  -0.901
  -1.542  -3.097  -1.183
  -1.309  -3.323  -1.183
  -1.048  -3.515  -1.183
  -0.763  -3.671  -1.183
  -0.460  -3.788  -1.183
  -0.144  -3.863  -1.183
   0.179  -3.896  -1.183
   0.503  -3.885  -1.183
   0.823  -3.831  -1.183
   1.133  -3.735  -1.183
   1.428  -3.598  -1.183
   1.701  -3.423  -1.183
   1.949  -3.214  -1.183
   2.167  -2.973  -1.183
   2.351  -2.705  -1.183
   2.497  -2.416  -1.183
   2.604  -2.109  -1.183
   2.668  -1.791  -1.183
  -1.516  -2.838  -1.445
  -1.297  -3.082  -1.445
  -1.046  -3.292  -1.445
  -0.766  -3.463  -1.445
  -0.465  -3.591  -1.445
  -0.148  -3.674  -1.445
   0.178  -3.709  -1.445
   0.505  -3.697  -1.445
   0.828  -3.638  -1.445
   1.138  -3.532  -1.445
   1.429  -3.382  -1.445
   1.695  -3.192  -1.445
   1.931  -2.964  -1.445
   2.131  -2.705  -1.445
   2.292  -2.419  -1.445
   2.409  -2.113  -1.445
   2.480  -1.794  -1.445
  -1.259  -2.813  -1.685
  -1.023  -3.039  -1.685
  -0.755  -3.225  -1.685
  -0.460  -3.365  -1.685
  -0.146  -3.455  -1.685
   0.178  -3.495  -1.685
   0.505  -3.482  -1.685
   0.825  -3.416  -1.685
   1.130  -3.300  -1.685
   1.413  -3.137  -1.685
   1.666  -2.931  -1.685
   1.882  -2.686  -1.685
   2.057  -2.410  -1.685
   2.185  -2.110  -1.685
   2.263  -1.793  -1.685
  -1.062  -2.673  -1.900
  -0.818  -2.895  -1.900
  -0.538  -3.069  -1.900
  -0.230  -3.188  -1.900
   0.095  -3.249  -1.900
   0.425  -3.249  -1.900
   0.750  -3.188  -1.900
   1.058  -3.069  -1.900
   1.338  -2.895  -1.900
   1.582  -2.673  -1.900
   1.781  -2.409  -1.900
   1.929  -2.113  -1.900
  -0.849  -2.517  -2.086
  -0.597  -2.731  -2.086
  -0.305  -2.885  -2.086
   0.013  -2.974  -2.086
   0.343  -2.992  -2.086
   0.668  -2.938  -2.086
   0.975  -2.816  -2.086
   1.249  -2.631  -2.086
   1.476  -2.391  -2.086
   1.646  -2.108  -2.086
  -0.363  -2.545  -2.242
  -0.062  -2.670  -2.242
   0.260  -2.712  -2.242
   0.582  -2.670  -2.242
   0.883  -2.545  -2.242
   1.141  -2.348  -2.242
   1.338  -2.090  -2.242
   0.095  -2.401  -2.365
   0.425  -2.401  -2.365
   0.734  -2.288  -2.365
   0.986  -2.076  -2.365
  -2.888   0.314   1.772
  -2.957  -0.001   1.772
  -2.957  -0.323   1.772
  -2.888  -0.638   1.772
  -2.752  -0.930   1.772
  -2.558  -1.186   1.772
  -3.104   0.469   1.590
  -3.192   0.159   1.590
  -3.222  -0.162   1.590
  -3.192  -0.483   1.590
  -3.104  -0.793   1.590
  -2.960  -1.081   1.590
  -2.766  -1.338   1.590
  -2.528  -1.555   1.590
  -3.449  -0.003   1.381
  -3.449  -0.321   1.381
  -3.398  -0.636   1.381
  -3.297  -0.938   1.381
  -3.149  -1.220   1.381
  -2.958  -1.475   1.381
  -2.728  -1.696   1.381
  -2.466  -1.877   1.381
  -3.659  -0.322   1.147
  -3.613  -0.638   1.147
  -3.521  -0.944   1.147
  -3.385  -1.233   1.147
  -3.209  -1.500   1.147
  -2.995  -1.738   1.147
  -2.750  -1.942   1.147
  -2.477  -2.109   1.147
  -3.799  -0.634   0.891
  -3.716  -0.940   0.891
  -3.592  -1.231   0.891
  -3.431  -1.504   0.891
  -3.234  -1.752   0.891
  -3.007  -1.972   0.891
  -2.752  -2.160   0.891
  -2.474  -2.313   0.891
  -3.919  -0.789   0.616
  -3.822  -1.091   0.616
  -3.687  -1.377   0.616
  -3.517  -1.645   0.616
  -3.315  -1.889   0.616
  -3.084  -2.106   0.616
  -2.828  -2.292   0.616
  -2.550  -2.445   0.616
  -3.947  -1.099   0.326
  -3.816  -1.390   0.326
  -3.651  -1.663   0.326
  -3.454  -1.915   0.326
  -3.229  -2.140   0.326
  -2.977  -2.337   0.326
  -2.704  -2.502   0.326
  -2.413  -2.633   0.326
  -3.915  -1.387   0.024
  -3.757  -1.662   0.024
  -3.567  -1.917   0.024
  -3.349  -2.148   0.024
  -3.106  -2.352   0.024
  -2.841  -2.526   0.024
  -2.557  -2.669   0.024
  -3.727  -1.797  -0.285
  -3.526  -2.043  -0.285
  -3.298  -2.265  -0.285
  -3.047  -2.459  -0.285
  -2.774  -2.623  -0.285
  -2.485  -2.755  -0.285
  -2.183  -2.853  -0.285
  -3.665  -1.908  -0.599
  -3.456  -2.142  -0.599
  -3.222  -2.351  -0.599
  -2.966  -2.533  -0.599
  -2.691  -2.685  -0.599
  -2.401  -2.805  -0.599
  -2.099  -2.892  -0.599
  -3.298  -2.265  -0.912
  -3.047  -2.459  -0.912
  -2.774  -2.623  -0.912
  -2.485  -2.755  -0.912
  -2.183  -2.853  -0.912
  -3.106  -2.352  -1.222
  -2.841  -2.526  -1.222
  -2.557  -2.669  -1.222
  -2.259  -2.777  -1.222
  -1.950  -2.850  -1.222
  -2.977  -2.337  -1.524
  -2.704  -2.502  -1.524
  -2.413  -2.633  -1.524
  -2.108  -2.728  -1.524
  -1.795  -2.786  -1.524
  -1.476  -2.805  -1.524
  -2.828  -2.292  -1.814
  -2.550  -2.445  -1.814
  -2.256  -2.561  -1.814
  -1.949  -2.640  -1.814
  -1.634  -2.680  -1.814
  -1.318  -2.680  -1.814
  -2.474  -2.313  -2.089
  -2.178  -2.426  -2.089
  -1.870  -2.500  -2.089
  -1.555  -2.532  -2.089
  -1.239  -2.521  -2.089
  -0.926  -2.468  -2.089
  -2.477  -2.109  -2.345
  -2.183  -2.234  -2.345
  -1.874  -2.315  -2.345
  -1.556  -2.350  -2.345
  -1.237  -2.338  -2.345
  -0.922  -2.280  -2.345
  -2.178  -2.013  -2.579
  -1.872  -2.102  -2.579
  -1.556  -2.140  -2.579
  -1.237  -2.127  -2.579
  -0.925  -2.064  -2.579
  -1.637  -1.900  -2.788
  -1.315  -1.900  -2.788
  -0.998  -1.841  -2.788
  -0.698  -1.725  -2.788
  -1.077  -1.597  -2.970
  -0.778  -1.478  -2.970
  -3.497   0.856   1.416
  -3.451   0.508   1.416
  -3.792   0.678   1.248
  -3.715   0.329   1.248
  -4.085   0.856   1.047
  -4.052   0.501   1.047
  -3.954   0.158   1.047
  -3.795  -0.161   1.047
  -4.337   1.032   0.815
  -4.337   0.680   0.815
  -4.280   0.331   0.815
  -4.169  -0.003   0.815
  -4.005  -0.316   0.815
  -4.569   1.033   0.556
  -4.569   0.679   0.556
  -4.518   0.329   0.556
  -4.416  -0.010   0.556
  -4.266  -0.330   0.556
  -4.070  -0.625   0.556
  -4.771   1.031   0.272
  -4.771   0.681   0.272
  -4.923   1.206  -0.032
  -4.993   1.556  -0.353
  -4.992   1.890  -0.687
  -4.990   2.055  -1.030
  -0.219   3.280  -1.377
  -4.945   2.201  -1.377
  -0.561   3.494  -1.724
  -4.644   2.667  -1.724
  -4.834   2.371  -1.724
  -1.285   3.751  -2.067
  -4.226   3.054  -2.067
  -4.467   2.799  -2.067
  -4.677   2.517  -2.067
  -1.799   3.761  -2.401
  -2.152   3.782  -2.401
  -2.505   3.761  -2.401
  -2.852   3.697  -2.401
  -3.190   3.592  -2.401
  -3.512   3.447  -2.401
  -3.814   3.264  -2.401
  -4.092   3.046  -2.401
  -4.342   2.796  -2.401
  -4.560   2.518  -2.401
  -1.977   3.643  -2.722
  -2.327   3.643  -2.722
  -2.675   3.600  -2.722
  -3.015   3.512  -2.722
  -3.341   3.383  -2.722
  -3.649   3.214  -2.722
  -3.932   3.008  -2.722
  -4.188   2.768  -2.722
  -4.412   2.498  -2.722
  -2.327  -1.931  -2.722
  -1.977  -1.931  -2.722
  -2.589   3.444  -3.026
  -2.930   3.363  -3.026
  -3.257   3.237  -3.026
  -3.564   3.068  -3.026
  -3.847   2.860  -3.026
  -4.099   2.617  -3.026
  -4.316   2.342  -3.026
  -2.240  -1.767  -3.026
  -1.889  -1.756  -3.026
  -1.544  -1.697  -3.026
  -1.209  -1.593  -3.026
  -0.891  -1.446  -3.026
  -0.595  -1.257  -3.026
  -2.592   3.239  -3.310
  -2.935   3.150  -3.310
  -3.260   3.011  -3.310
  -3.562   2.827  -3.310
  -3.834   2.601  -3.310
  -4.070   2.337  -3.310
  -2.241  -1.566  -3.310
  -1.887  -1.553  -3.310
  -1.539  -1.489  -3.310
  -1.204  -1.375  -3.310
  -0.889  -1.213  -3.310
  -2.929   2.906  -3.569
  -3.248   2.754  -3.569
  -3.538   2.554  -3.569
  -3.793   2.310  -3.569
  -4.005   2.028  -3.569
  -2.240  -1.334  -3.569
  -1.888  -1.320  -3.569
  -1.542  -1.249  -3.569
  -1.212  -1.124  -3.569
  -3.014   2.586  -3.801
  -3.317   2.398  -3.801
  -3.580   2.158  -3.801
  -3.795   1.874  -3.801
  -2.330  -1.069  -3.801
  -1.974  -1.069  -3.801
  -1.623  -1.003  -3.801
  -3.078   2.221  -4.002
  -3.349   1.990  -4.002
  -3.565   1.706  -4.002
  -2.419  -0.772  -4.002
  -2.063  -0.791  -4.002
  -3.317   1.529  -4.170
  -3.451   1.204  -4.170
  -2.500  -0.443  -4.170
  -3.114   1.206  -4.303
  -3.176   0.856  -4.303
  -2.664  -0.031  -4.303
  -4.065   1.007   1.071
  -4.531   1.290   0.616
  -4.698   1.434   0.361
  -4.909   1.728  -0.188
  -4.953   1.876  -0.476
  -4.909   2.307  -0.767
  -4.853   2.456  -1.058
  -4.756   2.595  -1.346