 $system timlim=999888777
         mwords=100 $end
 $contrl exetyp=run
         runtyp=energy scftyp=rhf
         icharg=-1 mult=1 units=angs coord=unique
         maxit=50 ispher=1 qmttol=1d-6 icut=12 itol=22 $end
 $scf    dirscf=.t. diis=.t. soscf=.f.
         fdiff=.f. conv=1d-6
         npreo(1)=0,-1,1,9999 $end
 $elpot  iepot=1 where=points $end
 $basis  gbasis=n311 ngauss=6
         ndfunc=1 npfunc=1 diffsp=.t. diffs=.t. $end
 $DATA
TS1a_hfd_irc200_all_revmov.pdb
C1
P     15.0    -0.04200   0.01600  -0.02600 
O      8.0    -0.11600   0.60100   1.41100 
O      8.0     0.94900   0.59500  -0.91700 
F      9.0     0.26500  -1.47100   0.33000 
O      8.0    -1.47600  -0.16200  -0.59900 
C      6.0    -2.15200   0.85600  -1.37700 
H      1.0    -2.36200   1.73300  -0.77000 
H      1.0    -1.53400   1.10200  -2.23000 
H      1.0    -3.06600   0.38400  -1.70700 
C      6.0    -0.07500   2.02200   1.69200 
H      1.0    -0.03600   2.08500   2.77000 
H      1.0     0.83100   2.43000   1.26600 
H      1.0    -0.96000   2.52100   1.30400 
O      8.0    -2.51700   3.32100   0.39200 
H      1.0    -3.09300   4.06800   0.49900 
 $END
 $POINTS
ANGS 3133
  -2.452  -0.906   2.032
  -2.292  -1.247   2.032
  -2.084  -1.561   2.032
   2.511  -0.360   2.032
   2.752   0.016   1.730
   2.727   0.388   1.730
  -2.346  -1.565   1.730
   2.727  -0.356   1.730
   2.931   0.016   1.406
   2.908   0.389   1.406
   2.838   0.755   1.406
   2.838  -0.723   1.406
   2.908  -0.357   1.406
   3.073   0.016   1.064
   3.050   0.391   1.064
   2.982   0.761   1.064
   2.982  -0.729   1.064
   3.050  -0.359   1.064
   3.175   0.016   0.708
   3.089  -0.726   0.708
   3.154  -0.358   0.708
   3.152  -0.727   0.343
  -0.509  -2.270  -2.359
   1.284  -1.904  -2.359
  -0.605  -1.963  -2.606
  -0.232  -2.033  -2.606
   0.148  -2.033  -2.606
   0.521  -1.963  -2.606
   0.875  -1.826  -2.606
   1.198  -1.626  -2.606
  -0.326  -1.717  -2.820
   0.053  -1.737  -2.820
   0.428  -1.676  -2.820
   0.780  -1.535  -2.820
  -0.413  -1.367  -2.999
  -0.042  -1.416  -2.999
   0.329  -1.367  -2.999
  -0.231  -1.057  -3.141
   0.147  -1.057  -3.141
  -0.578  -0.200   4.054
  -0.277  -0.310   4.054
   0.045  -0.310   4.054
   0.346  -0.200   4.054
  -1.168  -0.006   3.934
  -0.975  -0.258   3.934
  -0.723  -0.451   3.934
  -0.430  -0.572   3.934
  -0.116  -0.614   3.934
   0.198  -0.572   3.934
   0.491  -0.451   3.934
   0.743  -0.258   3.934
  -1.528   0.125   3.782
  -1.392  -0.167   3.782
  -1.198  -0.423   3.782
  -0.952  -0.632   3.782
  -0.667  -0.783   3.782
  -0.357  -0.869   3.782
  -0.035  -0.887   3.782
   0.283  -0.834   3.782
   0.582  -0.715   3.782
   0.848  -0.534   3.782
   1.070  -0.301   3.782
   1.236  -0.025   3.782
  -1.832   0.280   3.600
  -1.744  -0.030   3.600
  -1.600  -0.318   3.600
  -1.406  -0.575   3.600
  -1.168  -0.792   3.600
  -0.894  -0.962   3.600
  -0.594  -1.078   3.600
  -0.277  -1.137   3.600
   0.045  -1.137   3.600
   0.362  -1.078   3.600
   0.662  -0.962   3.600
   0.936  -0.792   3.600
   1.174  -0.575   3.600
   1.368  -0.318   3.600
   1.512  -0.030   3.600
  -2.038   0.127   3.391
  -1.937  -0.175   3.391
  -1.789  -0.457   3.391
  -1.598  -0.712   3.391
  -1.368  -0.933   3.391
  -1.106  -1.114   3.391
  -0.818  -1.250   3.391
  -0.512  -1.339   3.391
  -0.196  -1.377   3.391
   0.123  -1.364   3.391
   0.435  -1.301   3.391
   0.733  -1.188   3.391
   1.009  -1.028   3.391
   1.256  -0.827   3.391
   1.467  -0.588   3.391
   1.637  -0.319   3.391
   1.762  -0.026   3.391
  -2.253   0.125   3.157
  -2.161  -0.181   3.157
  -2.025  -0.470   3.157
  -1.849  -0.737   3.157
  -1.635  -0.975   3.157
  -1.390  -1.179   3.157
  -1.117  -1.346   3.157
  -0.823  -1.471   3.157
  -0.514  -1.552   3.157
   1.024  -1.268   3.157
   1.284  -1.082   3.157
   1.514  -0.860   3.157
   1.710  -0.607   3.157
   1.866  -0.328   3.157
   1.980  -0.030   3.157
   2.050   0.282   3.157
  -2.482   0.443   2.901
  -2.439   0.129   2.901
  -2.356  -0.177   2.901
  -2.232  -0.468   2.901
  -2.071  -0.741   2.901
  -1.874  -0.989   2.901
  -1.647  -1.209   2.901
  -1.392  -1.397   2.901
  -1.114  -1.550   2.901
   1.532  -1.103   2.901
   1.745  -0.868   2.901
   1.924  -0.607   2.901
   2.067  -0.325   2.901
   2.171  -0.025   2.901
   2.234   0.285   2.901
  -2.619   0.285   2.626
  -2.559  -0.026   2.626
  -2.462  -0.328   2.626
  -2.327  -0.614   2.626
  -2.157  -0.882   2.626
  -1.955  -1.126   2.626
  -1.724  -1.343   2.626
  -1.468  -1.529   2.626
   1.925  -0.882   2.626
   2.095  -0.614   2.626
   2.230  -0.328   2.626
   2.327  -0.026   2.626
   2.387   0.285   2.626
  -2.759   0.601   2.336
  -2.740   0.282   2.336
  -2.682  -0.031   2.336
  -2.587  -0.336   2.336
  -2.456  -0.627   2.336
  -2.291  -0.900   2.336
  -2.094  -1.152   2.336
   2.224  -0.627   2.336
   2.355  -0.336   2.336
   2.450  -0.031   2.336
   2.508   0.282   2.336
  -2.846   0.601   2.034
  -2.827   0.284   2.034
  -2.772  -0.029   2.034
  -2.681  -0.333   2.034
  -2.555  -0.624   2.034
   2.540  -0.029   2.034
   2.595   0.284   2.034
   3.138   0.595   0.829
   3.115   0.914   0.829
   3.320   0.595   0.573
   3.299   0.911   0.573
   3.236   1.221   0.573
   3.236  -0.031   0.573
   3.299   0.279   0.573
   3.472   0.595   0.298
   3.452   0.911   0.298
   3.392   1.222   0.298
   3.295   1.524   0.298
   3.295  -0.334   0.298
   3.392  -0.032   0.298
   3.452   0.279   0.298
   3.592   0.595   0.008
   3.573   0.914   0.008
   3.515   1.227   0.008
   3.420   1.532   0.008
   3.289   1.823   0.008
   3.124   2.096   0.008
   3.289  -0.633   0.008
   3.420  -0.342   0.008
   3.515  -0.037   0.008
   3.573   0.276   0.008
   3.679   0.595  -0.294
   3.660   0.912  -0.294
   3.605   1.225  -0.294
   3.514   1.529  -0.294
   3.388   1.820  -0.294
   3.230   2.095  -0.294
   3.040   2.350  -0.294
   3.230  -0.905  -0.294
   3.388  -0.630  -0.294
   3.514  -0.339  -0.294
   3.605  -0.035  -0.294
   3.660   0.278  -0.294
   3.731   0.595  -0.603
   3.713   0.912  -0.603
   3.659   1.225  -0.603
   3.570   1.530  -0.603
   3.446   1.823  -0.603
   3.290   2.099  -0.603
   3.103   2.356  -0.603
   2.888   2.590  -0.603
   2.648   2.798  -0.603
   3.103  -1.166  -0.603
   3.290  -0.909  -0.603
   3.446  -0.633  -0.603
   3.570  -0.340  -0.603
   3.659  -0.035  -0.603
   3.713   0.278  -0.603
   3.749   0.595  -0.917
   3.731   0.909  -0.917
   3.679   1.218  -0.917
   3.592   1.520  -0.917
   3.472   1.810  -0.917
   3.320   2.085  -0.917
   3.138   2.341  -0.917
   2.929   2.575  -0.917
   2.695   2.784  -0.917
   2.439   2.966  -0.917
   2.164   3.118  -0.917
   2.929  -1.385  -0.917
   3.138  -1.151  -0.917
   3.320  -0.895  -0.917
   3.472  -0.620  -0.917
   3.592  -0.330  -0.917
   3.679  -0.028  -0.917
   3.731   0.281  -0.917
   3.731   0.595  -1.230
   3.713   0.912  -1.230
   3.659   1.225  -1.230
   3.570   1.530  -1.230
   3.446   1.823  -1.230
   3.290   2.099  -1.230
   3.103   2.356  -1.230
   2.888   2.590  -1.230
   2.648   2.798  -1.230
   2.386   2.978  -1.230
   2.105   3.126  -1.230
   1.809   3.241  -1.230
   1.502   3.322  -1.230
   1.187   3.367  -1.230
   0.870   3.376  -1.230
   0.553   3.349  -1.230
   0.242   3.286  -1.230
  -0.060   3.188  -1.230
   2.888  -1.400  -1.230
   3.103  -1.166  -1.230
   3.290  -0.909  -1.230
   3.446  -0.633  -1.230
   3.570  -0.340  -1.230
   3.659  -0.035  -1.230
   3.713   0.278  -1.230
   3.679   0.595  -1.540
   3.660   0.912  -1.540
   3.605   1.225  -1.540
   3.514   1.529  -1.540
   3.388   1.820  -1.540
   3.230   2.095  -1.540
   3.040   2.350  -1.540
   2.822   2.581  -1.540
   2.579   2.785  -1.540
   2.314   2.959  -1.540
   2.030   3.102  -1.540
   1.732   3.210  -1.540
   1.423   3.283  -1.540
   1.108   3.320  -1.540
   0.790   3.320  -1.540
   0.475   3.283  -1.540
   0.166   3.210  -1.540
   2.579  -1.595  -1.540
   2.822  -1.391  -1.540
   3.040  -1.160  -1.540
   3.230  -0.905  -1.540
   3.388  -0.630  -1.540
   3.514  -0.339  -1.540
   3.605  -0.035  -1.540
   3.660   0.278  -1.540
   3.592   0.595  -1.842
   3.573   0.914  -1.842
   3.515   1.227  -1.842
   3.420   1.532  -1.842
   3.289   1.823  -1.842
   3.124   2.096  -1.842
   2.927   2.348  -1.842
   2.702   2.573  -1.842
   2.450   2.770  -1.842
   2.177   2.935  -1.842
   1.886   3.066  -1.842
   1.581   3.161  -1.842
   1.268   3.219  -1.842
   0.949   3.238  -1.842
   0.630   3.219  -1.842
   0.317   3.161  -1.842
   2.177  -1.745  -1.842
   2.450  -1.580  -1.842
   2.702  -1.383  -1.842
   2.927  -1.158  -1.842
   3.124  -0.906  -1.842
   3.289  -0.633  -1.842
   3.420  -0.342  -1.842
   3.515  -0.037  -1.842
   3.573   0.276  -1.842
   3.472   0.595  -2.132
   3.452   0.911  -2.132
   3.392   1.222  -2.132
   3.295   1.524  -2.132
   3.160   1.810  -2.132
   2.990   2.078  -2.132
   2.788   2.322  -2.132
   2.557   2.539  -2.132
   2.301   2.725  -2.132
   2.023   2.878  -2.132
   1.729   2.994  -2.132
   1.422   3.073  -2.132
   1.107   3.113  -2.132
   0.791   3.113  -2.132
   0.476   3.073  -2.132
   2.023  -1.688  -2.132
   2.301  -1.535  -2.132
   2.557  -1.349  -2.132
   2.788  -1.132  -2.132
   2.990  -0.888  -2.132
   3.160  -0.620  -2.132
   3.295  -0.334  -2.132
   3.392  -0.032  -2.132
   3.452   0.279  -2.132
   3.320   0.595  -2.407
   3.299   0.911  -2.407
   3.236   1.221  -2.407
   3.132   1.521  -2.407
   2.989   1.803  -2.407
   2.810   2.064  -2.407
   2.597   2.299  -2.407
   2.355   2.504  -2.407
   2.088   2.674  -2.407
   1.801   2.807  -2.407
   1.499   2.901  -2.407
   1.186   2.954  -2.407
   0.870   2.965  -2.407
   0.555   2.933  -2.407
   1.499  -1.711  -2.407
   1.801  -1.617  -2.407
   2.088  -1.484  -2.407
   2.355  -1.314  -2.407
   2.597  -1.109  -2.407
   2.810  -0.874  -2.407
   2.989  -0.613  -2.407
   3.132  -0.331  -2.407
   3.236  -0.031  -2.407
   3.299   0.279  -2.407
   3.138   0.595  -2.663
   3.115   0.914  -2.663
   3.045   1.226  -2.663
   2.931   1.524  -2.663
   2.775   1.803  -2.663
   2.579   2.056  -2.663
   2.349   2.278  -2.663
   2.089   2.464  -2.663
   1.805   2.610  -2.663
   1.503   2.713  -2.663
   1.188   2.771  -2.663
   0.869   2.783  -2.663
   0.551   2.748  -2.663
   1.188  -1.581  -2.663
   1.503  -1.523  -2.663
   1.805  -1.420  -2.663
   2.089  -1.274  -2.663
   2.349  -1.088  -2.663
   2.579  -0.866  -2.663
   2.775  -0.613  -2.663
   2.931  -0.334  -2.663
   3.045  -0.036  -2.663
   3.115   0.276  -2.663
   2.929   0.595  -2.897
   2.903   0.913  -2.897
   2.827   1.222  -2.897
   2.702   1.515  -2.897
   2.532   1.784  -2.897
   2.321   2.023  -2.897
   2.074   2.224  -2.897
   1.798   2.384  -2.897
   1.500   2.497  -2.897
   1.188   2.560  -2.897
   0.869   2.573  -2.897
   0.553   2.535  -2.897
   0.869  -1.383  -2.897
   1.188  -1.370  -2.897
   1.500  -1.307  -2.897
   1.798  -1.194  -2.897
   2.074  -1.034  -2.897
   2.321  -0.833  -2.897
   2.532  -0.594  -2.897
   2.702  -0.325  -2.897
   2.827  -0.032  -2.897
   2.903   0.277  -2.897
   2.695   0.595  -3.106
   2.665   0.916  -3.106
   2.577   1.226  -3.106
   2.433   1.514  -3.106
   2.239   1.771  -3.106
   2.001   1.988  -3.106
   1.727   2.158  -3.106
   1.427   2.274  -3.106
   1.110   2.333  -3.106
   0.788   2.333  -3.106
   0.471  -1.084  -3.106
   0.788  -1.143  -3.106
   1.110  -1.143  -3.106
   1.427  -1.084  -3.106
   1.727  -0.968  -3.106
   2.001  -0.798  -3.106
   2.239  -0.581  -3.106
   2.433  -0.324  -3.106
   2.577  -0.036  -3.106
   2.665   0.274  -3.106
   2.439   0.595  -3.288
   2.404   0.915  -3.288
   2.301   1.221  -3.288
   2.135   1.497  -3.288
   1.913   1.730  -3.288
   1.647   1.911  -3.288
   1.348   2.030  -3.288
   1.030   2.083  -3.288
   0.708   2.065  -3.288
   0.113  -0.638  -3.288
   0.398  -0.789  -3.288
   0.708  -0.875  -3.288
   1.030  -0.893  -3.288
   1.348  -0.840  -3.288
   1.647  -0.721  -3.288
   1.913  -0.540  -3.288
   2.135  -0.307  -3.288
   2.301  -0.031  -3.288
   2.404   0.275  -3.288
   2.164   0.595  -3.440
   2.122   0.909  -3.440
   2.001   1.202  -3.440
   1.808   1.454  -3.440
   1.556   1.647  -3.440
   1.263   1.768  -3.440
   0.949   1.810  -3.440
   0.342  -0.457  -3.440
   0.635  -0.578  -3.440
   0.949  -0.620  -3.440
   1.263  -0.578  -3.440
   1.556  -0.457  -3.440
   1.808  -0.264  -3.440
   2.001  -0.012  -3.440
   2.122   0.281  -3.440
   1.874   0.595  -3.560
   1.818   0.911  -3.560
   1.657   1.189  -3.560
   1.411   1.396  -3.560
   1.110   1.506  -3.560
   0.788   1.506  -3.560
   0.487  -0.206  -3.560
   0.788  -0.316  -3.560
   1.110  -0.316  -3.560
   1.411  -0.206  -3.560
   1.657   0.001  -3.560
   1.818   0.279  -3.560
   1.572   0.595  -3.647
   1.489   0.907  -3.647
   1.261   1.135  -3.647
   0.949   1.218  -3.647
   0.637   0.055  -3.647
   0.949  -0.028  -3.647
   1.261   0.055  -3.647
   1.489   0.283  -3.647
   1.263   0.595  -3.699
   1.106   0.867  -3.699
   0.792   0.867  -3.699
   0.635   0.595  -3.699
   0.792   0.323  -3.699
   1.106   0.323  -3.699
   0.949   0.595  -3.717
   0.586  -1.471   3.182
   0.104  -1.749   3.182
   0.426  -1.749   3.182
   0.904  -1.471   3.128
  -0.288  -1.790   3.128
  -0.054  -2.024   3.128
   0.265  -2.110   3.128
   0.584  -2.024   3.128
   0.818  -1.790   3.128
   1.213  -1.471   3.039
  -0.626  -1.795   3.039
  -0.461  -2.080   3.039
  -0.209  -2.292   3.039
   0.100  -2.404   3.039
   0.430  -2.405   3.039
   0.739  -2.292   3.039
   0.991  -2.080   3.039
   1.156  -1.795   3.039
   1.510  -1.471   2.916
  -0.938  -1.793   2.916
  -0.813  -2.094   2.916
  -0.616  -2.352   2.916
  -0.358  -2.549   2.916
  -0.057  -2.674   2.916
   0.265  -2.716   2.916
   0.587  -2.674   2.916
   0.888  -2.549   2.916
   1.146  -2.352   2.916
   1.343  -2.094   2.916
   1.468  -1.793   2.916
   1.792  -1.471   2.760
   1.756  -1.143   2.760
  -1.253  -1.636   2.760
  -1.182  -1.959   2.760
  -1.043  -2.258   2.760
  -0.844  -2.521   2.760
  -0.592  -2.735   2.760
  -0.300  -2.889   2.760
   0.018  -2.978   2.760
   0.348  -2.996   2.760
   0.673  -2.942   2.760
   0.980  -2.820   2.760
   1.254  -2.635   2.760
   1.481  -2.395   2.760
   1.651  -2.112   2.760
   1.756  -1.799   2.760
   2.054  -1.471   2.574
   2.024  -1.142   2.574
  -1.494  -1.800   2.574
  -1.404  -2.117   2.574
  -1.256  -2.413   2.574
  -1.057  -2.677   2.574
  -0.813  -2.899   2.574
  -0.533  -3.073   2.574
  -0.225  -3.192   2.574
   0.100  -3.253   2.574
   0.430  -3.253   2.574
   0.755  -3.192   2.574
   1.063  -3.073   2.574
   1.343  -2.899   2.574
   1.587  -2.677   2.574
   1.786  -2.413   2.574
   1.934  -2.117   2.574
   2.024  -1.800   2.574
   2.294  -1.471   2.359
   2.268  -1.145   2.359
   2.190  -0.828   2.359
  -1.758  -1.634   2.359
  -1.705  -1.957   2.359
  -1.602  -2.266   2.359
  -1.450  -2.556   2.359
  -1.254  -2.817   2.359
  -1.018  -3.043   2.359
  -0.750  -3.229   2.359
  -0.455  -3.369   2.359
  -0.141  -3.459   2.359
   0.183  -3.499   2.359
   0.510  -3.486   2.359
   0.830  -3.420   2.359
   1.135  -3.304   2.359
   1.418  -3.141   2.359
   1.671  -2.935   2.359
   1.887  -2.690   2.359
   2.062  -2.414   2.359
   2.190  -2.114   2.359
   2.268  -1.797   2.359
   2.509  -1.471   2.119
   2.485  -1.144   2.119
   2.414  -0.825   2.119
  -1.973  -1.635   2.119
  -1.925  -1.959   2.119
  -1.831  -2.273   2.119
  -1.692  -2.569   2.119
  -1.511  -2.842   2.119
  -1.292  -3.086   2.119
  -1.041  -3.296   2.119
  -0.761  -3.467   2.119
  -0.460  -3.595   2.119
  -0.143  -3.678   2.119
   0.183  -3.713   2.119
   0.510  -3.701   2.119
   0.833  -3.642   2.119
   1.143  -3.536   2.119
   1.434  -3.386   2.119
   1.700  -3.196   2.119
   1.936  -2.968   2.119
   2.136  -2.709   2.119
   2.297  -2.423   2.119
   2.414  -2.117   2.119
   2.485  -1.798   2.119
   2.695  -1.471   1.857
   2.673  -1.147   1.857
   2.609  -0.829   1.857
  -2.116  -1.955   1.857
  -2.031  -2.268   1.857
  -1.904  -2.567   1.857
  -1.738  -2.846   1.857
  -1.537  -3.101   1.857
  -1.304  -3.327   1.857
  -1.043  -3.519   1.857
  -0.758  -3.675   1.857
  -0.455  -3.792   1.857
  -0.139  -3.867   1.857
   0.184  -3.900   1.857
   0.508  -3.889   1.857
   0.828  -3.835   1.857
   1.138  -3.739   1.857
   1.433  -3.602   1.857
   1.706  -3.427   1.857
   1.954  -3.218   1.857
   2.172  -2.977   1.857
   2.356  -2.709   1.857
   2.502  -2.420   1.857
   2.609  -2.113   1.857
   2.673  -1.795   1.857
   2.851  -1.471   1.575
   2.830  -1.147   1.575
   2.770  -0.828   1.575
  -2.300  -1.795   1.575
  -2.240  -2.114   1.575
  -2.139  -2.423   1.575
  -2.001  -2.717   1.575
  -1.827  -2.991   1.575
  -1.620  -3.241   1.575
  -1.383  -3.463   1.575
  -1.121  -3.654   1.575
  -0.836  -3.811   1.575
  -0.534  -3.930   1.575
  -0.220  -4.011   1.575
   0.103  -4.052   1.575
   0.427  -4.052   1.575
   0.750  -4.011   1.575
   1.064  -3.930   1.575
   1.366  -3.811   1.575
   1.651  -3.654   1.575
   1.913  -3.463   1.575
   2.150  -3.241   1.575
   2.357  -2.991   1.575
   2.531  -2.717   1.575
   2.669  -2.423   1.575
   2.770  -2.114   1.575
   2.830  -1.795   1.575
   2.974  -1.471   1.278
   2.954  -1.144   1.278
   2.895  -0.823   1.278
  -2.365  -2.119   1.278
  -2.268  -2.432   1.278
  -2.134  -2.730   1.278
  -1.964  -3.010   1.278
  -1.763  -3.267   1.278
  -1.531  -3.499   1.278
  -1.274  -3.700   1.278
  -0.994  -3.870   1.278
  -0.696  -4.004   1.278
  -0.383  -4.101   1.278
  -0.062  -4.160   1.278
   0.265  -4.180   1.278
   0.592  -4.160   1.278
   0.913  -4.101   1.278
   1.226  -4.004   1.278
   1.524  -3.870   1.278
   1.804  -3.700   1.278
   2.061  -3.499   1.278
   2.293  -3.267   1.278
   2.494  -3.010   1.278
   2.664  -2.730   1.278
   2.798  -2.432   1.278
   2.895  -2.119   1.278
   2.954  -1.798   1.278
   3.063  -1.471   0.969
   3.044  -1.146   0.969
  -2.364  -2.428   0.969
  -2.235  -2.727   0.969
  -2.073  -3.009   0.969
  -1.878  -3.270   0.969
  -1.655  -3.506   0.969
  -1.406  -3.715   0.969
  -1.134  -3.894   0.969
  -0.843  -4.040   0.969
  -0.537  -4.151   0.969
  -0.221  -4.227   0.969
   0.102  -4.264   0.969
   0.428  -4.264   0.969
   0.751  -4.227   0.969
   1.067  -4.151   0.969
   1.373  -4.040   0.969
   1.664  -3.894   0.969
   1.936  -3.715   0.969
   2.185  -3.506   0.969
   2.408  -3.270   0.969
   2.603  -3.009   0.969
   2.765  -2.727   0.969
   2.894  -2.428   0.969
   2.988  -2.116   0.969
   3.044  -1.796   0.969
   3.117  -1.471   0.651
   3.098  -1.146   0.651
  -2.362  -2.581   0.651
  -2.218  -2.873   0.651
  -2.042  -3.147   0.651
  -1.836  -3.399   0.651
  -1.603  -3.626   0.651
  -1.345  -3.825   0.651
  -1.066  -3.993   0.651
  -0.770  -4.129   0.651
  -0.460  -4.229   0.651
  -0.141  -4.294   0.651
   0.184  -4.322   0.651
   0.509  -4.312   0.651
   0.831  -4.266   0.651
   1.146  -4.183   0.651
   1.450  -4.065   0.651
   1.738  -3.913   0.651
   2.007  -3.729   0.651
   2.253  -3.516   0.651
   2.473  -3.276   0.651
   2.664  -3.013   0.651
   2.824  -2.729   0.651
   2.951  -2.429   0.651
   3.043  -2.117   0.651
   3.098  -1.796   0.651
   3.135  -1.471   0.330
   3.117  -1.150   0.330
  -2.321  -2.716   0.330
  -2.165  -2.998   0.330
  -1.979  -3.260   0.330
  -1.764  -3.500   0.330
  -1.524  -3.715   0.330
  -1.262  -3.901   0.330
  -0.980  -4.057   0.330
  -0.683  -4.180   0.330
  -0.374  -4.269   0.330
  -0.056  -4.323   0.330
   0.265  -4.341   0.330
   0.586  -4.323   0.330
   0.904  -4.269   0.330
   1.213  -4.180   0.330
   1.510  -4.057   0.330
   1.792  -3.901   0.330
   2.054  -3.715   0.330
   2.294  -3.500   0.330
   2.509  -3.260   0.330
   2.695  -2.998   0.330
   2.851  -2.716   0.330
   2.974  -2.419   0.330
   3.063  -2.110   0.330
   3.117  -1.792   0.330
   3.117  -1.471   0.009
   3.098  -1.146   0.009
  -2.218  -2.873   0.009
  -2.042  -3.147   0.009
  -1.836  -3.399   0.009
  -1.603  -3.626   0.009
  -1.345  -3.825   0.009
  -1.066  -3.993   0.009
  -0.770  -4.129   0.009
  -0.460  -4.229   0.009
  -0.141  -4.294   0.009
   0.184  -4.322   0.009
   0.509  -4.312   0.009
   0.831  -4.266   0.009
   1.146  -4.183   0.009
   1.450  -4.065   0.009
   1.738  -3.913   0.009
   2.007  -3.729   0.009
   2.253  -3.516   0.009
   2.473  -3.276   0.009
   2.664  -3.013   0.009
   2.824  -2.729   0.009
   2.951  -2.429   0.009
   3.043  -2.117   0.009
   3.098  -1.796   0.009
   3.063  -1.471  -0.309
  -2.073  -3.009  -0.309
  -1.878  -3.270  -0.309
  -1.655  -3.506  -0.309
  -1.406  -3.715  -0.309
  -1.134  -3.894  -0.309
  -0.843  -4.040  -0.309
  -0.537  -4.151  -0.309
  -0.221  -4.227  -0.309
   0.102  -4.264  -0.309
   0.428  -4.264  -0.309
   0.751  -4.227  -0.309
   1.067  -4.152  -0.309
   1.373  -4.040  -0.309
   1.664  -3.894  -0.309
   1.936  -3.715  -0.309
   2.185  -3.506  -0.309
   2.408  -3.270  -0.309
   2.603  -3.009  -0.309
   2.765  -2.727  -0.309
   2.894  -2.428  -0.309
   2.988  -2.116  -0.309
   3.044  -1.796  -0.309
   2.974  -1.471  -0.618
  -1.964  -3.010  -0.618
  -1.763  -3.267  -0.618
  -1.531  -3.499  -0.618
  -1.274  -3.700  -0.618
  -0.994  -3.870  -0.618
  -0.696  -4.004  -0.618
  -0.383  -4.101  -0.618
  -0.062  -4.160  -0.618
   0.265  -4.180  -0.618
   0.592  -4.160  -0.618
   0.913  -4.101  -0.618
   1.226  -4.004  -0.618
   1.524  -3.870  -0.618
   1.804  -3.700  -0.618
   2.061  -3.499  -0.618
   2.293  -3.267  -0.618
   2.494  -3.010  -0.618
   2.664  -2.730  -0.618
   2.798  -2.432  -0.618
   2.895  -2.119  -0.618
   2.954  -1.798  -0.618
   2.851  -1.471  -0.915
  -1.827  -2.991  -0.915
  -1.620  -3.241  -0.915
  -1.383  -3.463  -0.915
  -1.121  -3.654  -0.915
  -0.836  -3.811  -0.915
  -0.534  -3.930  -0.915
  -0.220  -4.011  -0.915
   0.103  -4.052  -0.915
   0.427  -4.052  -0.915
   0.750  -4.011  -0.915
   1.064  -3.930  -0.915
   1.366  -3.811  -0.915
   1.651  -3.654  -0.915
   1.913  -3.463  -0.915
   2.150  -3.241  -0.915
   2.357  -2.991  -0.915
   2.531  -2.717  -0.915
   2.669  -2.423  -0.915
   2.770  -2.114  -0.915
   2.830  -1.795  -0.915
  -1.537  -3.101  -1.197
  -1.304  -3.327  -1.197
  -1.043  -3.519  -1.197
  -0.758  -3.675  -1.197
  -0.455  -3.792  -1.197
  -0.139  -3.867  -1.197
   0.184  -3.900  -1.197
   0.508  -3.889  -1.197
   0.828  -3.835  -1.197
   1.138  -3.739  -1.197
   1.433  -3.602  -1.197
   1.706  -3.427  -1.197
   1.954  -3.218  -1.197
   2.172  -2.977  -1.197
   2.356  -2.709  -1.197
   2.502  -2.420  -1.197
   2.609  -2.113  -1.197
   2.673  -1.795  -1.197
  -1.511  -2.842  -1.459
  -1.292  -3.086  -1.459
  -1.041  -3.296  -1.459
  -0.761  -3.467  -1.459
  -0.460  -3.595  -1.459
  -0.143  -3.678  -1.459
   0.183  -3.713  -1.459
   0.510  -3.701  -1.459
   0.833  -3.642  -1.459
   1.143  -3.536  -1.459
   1.434  -3.386  -1.459
   1.700  -3.196  -1.459
   1.936  -2.968  -1.459
   2.136  -2.709  -1.459
   2.297  -2.423  -1.459
   2.414  -2.117  -1.459
   2.485  -1.798  -1.459
  -1.254  -2.817  -1.699
  -1.018  -3.043  -1.699
  -0.750  -3.229  -1.699
  -0.455  -3.369  -1.699
  -0.141  -3.459  -1.699
   0.183  -3.499  -1.699
   0.510  -3.486  -1.699
   0.830  -3.420  -1.699
   1.135  -3.304  -1.699
   1.418  -3.141  -1.699
   1.671  -2.935  -1.699
   1.887  -2.690  -1.699
   2.062  -2.414  -1.699
   2.190  -2.114  -1.699
   2.268  -1.797  -1.699
  -1.057  -2.677  -1.914
  -0.813  -2.899  -1.914
  -0.533  -3.073  -1.914
  -0.225  -3.192  -1.914
   0.100  -3.253  -1.914
   0.430  -3.253  -1.914
   0.755  -3.192  -1.914
   1.063  -3.073  -1.914
   1.343  -2.899  -1.914
   1.587  -2.677  -1.914
   1.786  -2.413  -1.914
   1.934  -2.117  -1.914
   2.024  -1.800  -1.914
  -0.844  -2.521  -2.100
  -0.592  -2.735  -2.100
  -0.300  -2.889  -2.100
   0.018  -2.978  -2.100
   0.348  -2.996  -2.100
   0.673  -2.942  -2.100
   0.980  -2.820  -2.100
   1.254  -2.635  -2.100
   1.481  -2.395  -2.100
   1.651  -2.112  -2.100
  -0.616  -2.352  -2.256
  -0.358  -2.549  -2.256
  -0.057  -2.674  -2.256
   0.265  -2.716  -2.256
   0.587  -2.674  -2.256
   0.888  -2.549  -2.256
   1.146  -2.352  -2.256
   1.343  -2.094  -2.256
  -0.209  -2.292  -2.379
   0.100  -2.405  -2.379
   0.430  -2.405  -2.379
   0.739  -2.292  -2.379
   0.991  -2.080  -2.379
  -2.888   0.314   1.772
  -2.957  -0.001   1.772
  -2.957  -0.323   1.772
  -2.888  -0.638   1.772
  -2.752  -0.930   1.772
  -2.558  -1.186   1.772
  -3.104   0.469   1.590
  -3.192   0.159   1.590
  -3.222  -0.162   1.590
  -3.192  -0.483   1.590
  -3.104  -0.793   1.590
  -2.960  -1.081   1.590
  -2.766  -1.338   1.590
  -2.528  -1.555   1.590
  -3.449  -0.003   1.381
  -3.449  -0.321   1.381
  -3.398  -0.636   1.381
  -3.297  -0.938   1.381
  -3.149  -1.220   1.381
  -2.958  -1.475   1.381
  -2.728  -1.696   1.381
  -2.466  -1.877   1.381
  -3.659  -0.322   1.147
  -3.613  -0.638   1.147
  -3.521  -0.944   1.147
  -3.385  -1.233   1.147
  -3.209  -1.500   1.147
  -2.995  -1.738   1.147
  -2.750  -1.942   1.147
  -2.477  -2.109   1.147
  -3.799  -0.634   0.891
  -3.716  -0.940   0.891
  -3.592  -1.231   0.891
  -3.431  -1.504   0.891
  -3.234  -1.752   0.891
  -3.007  -1.972   0.891
  -2.752  -2.160   0.891
  -2.474  -2.313   0.891
  -3.919  -0.789   0.616
  -3.822  -1.091   0.616
  -3.687  -1.377   0.616
  -3.517  -1.645   0.616
  -3.315  -1.889   0.616
  -3.084  -2.106   0.616
  -2.828  -2.292   0.616
  -2.550  -2.445   0.616
  -3.947  -1.099   0.326
  -3.816  -1.390   0.326
  -3.651  -1.663   0.326
  -3.454  -1.915   0.326
  -3.229  -2.140   0.326
  -2.977  -2.337   0.326
  -2.704  -2.502   0.326
  -2.413  -2.633   0.326
  -3.915  -1.387   0.024
  -3.757  -1.662   0.024
  -3.567  -1.917   0.024
  -3.349  -2.148   0.024
  -3.106  -2.352   0.024
  -2.841  -2.526   0.024
  -2.557  -2.669   0.024
  -3.727  -1.797  -0.285
  -3.526  -2.043  -0.285
  -3.298  -2.265  -0.285
  -3.047  -2.459  -0.285
  -2.774  -2.623  -0.285
  -2.485  -2.755  -0.285
  -2.183  -2.853  -0.285
  -3.665  -1.908  -0.599
  -3.456  -2.142  -0.599
  -3.222  -2.351  -0.599
  -2.966  -2.533  -0.599
  -2.691  -2.685  -0.599
  -2.401  -2.805  -0.599
  -2.099  -2.892  -0.599
  -3.298  -2.265  -0.912
  -3.047  -2.459  -0.912
  -2.774  -2.623  -0.912
  -2.485  -2.755  -0.912
  -2.183  -2.853  -0.912
  -3.106  -2.352  -1.222
  -2.841  -2.526  -1.222
  -2.557  -2.669  -1.222
  -2.259  -2.777  -1.222
  -1.950  -2.850  -1.222
  -2.977  -2.337  -1.524
  -2.704  -2.502  -1.524
  -2.413  -2.633  -1.524
  -2.108  -2.728  -1.524
  -1.795  -2.786  -1.524
  -1.476  -2.805  -1.524
  -2.828  -2.292  -1.814
  -2.550  -2.445  -1.814
  -2.256  -2.561  -1.814
  -1.949  -2.640  -1.814
  -1.634  -2.680  -1.814
  -1.318  -2.680  -1.814
  -2.474  -2.313  -2.089
  -2.178  -2.426  -2.089
  -1.870  -2.500  -2.089
  -1.555  -2.532  -2.089
  -1.239  -2.521  -2.089
  -0.926  -2.468  -2.089
  -2.477  -2.109  -2.345
  -2.183  -2.234  -2.345
  -1.874  -2.315  -2.345
  -1.556  -2.350  -2.345
  -1.237  -2.338  -2.345
  -0.922  -2.280  -2.345
  -2.178  -2.013  -2.579
  -1.872  -2.102  -2.579
  -1.556  -2.140  -2.579
  -1.237  -2.127  -2.579
  -0.925  -2.064  -2.579
  -1.637  -1.900  -2.788
  -1.315  -1.900  -2.788
  -0.998  -1.841  -2.788
  -0.698  -1.725  -2.788
  -1.077  -1.597  -2.970
  -0.778  -1.478  -2.970
  -3.176   0.856   1.549
  -3.497   0.856   1.416
  -3.451   0.508   1.416
  -3.792   0.678   1.248
  -3.715   0.329   1.248
  -4.085   0.856   1.047
  -4.052   0.501   1.047
  -3.954   0.158   1.047
  -3.795  -0.161   1.047
  -4.337   1.032   0.815
  -4.337   0.680   0.815
  -4.280   0.331   0.815
  -4.169  -0.003   0.815
  -4.005  -0.316   0.815
  -4.569   1.033   0.556
  -4.569   0.679   0.556
  -4.518   0.329   0.556
  -4.416  -0.010   0.556
  -4.266  -0.330   0.556
  -4.070  -0.625   0.556
  -4.724   1.379   0.272
  -4.771   1.031   0.272
  -4.771   0.681   0.272
  -4.857   1.551  -0.032
  -4.923   1.206  -0.032
  -4.993   1.556  -0.353
  -4.992   1.890  -0.687
  -4.990   2.055  -1.030
  -0.219   3.280  -1.377
  -4.777   2.505  -1.377
  -4.945   2.201  -1.377
  -0.561   3.494  -1.724
  -4.644   2.667  -1.724
  -4.834   2.371  -1.724
  -4.226   3.054  -2.067
  -4.467   2.799  -2.067
  -4.677   2.517  -2.067
  -1.452   3.697  -2.401
  -1.799   3.761  -2.401
  -2.152   3.782  -2.401
  -2.505   3.761  -2.401
  -3.190   3.592  -2.401
  -3.512   3.447  -2.401
  -3.814   3.264  -2.401
  -4.092   3.046  -2.401
  -4.342   2.796  -2.401
  -4.560   2.518  -2.401
  -1.977   3.643  -2.722
  -2.327   3.643  -2.722
  -2.675   3.600  -2.722
  -3.015   3.512  -2.722
  -3.341   3.383  -2.722
  -3.649   3.214  -2.722
  -3.932   3.008  -2.722
  -4.188   2.768  -2.722
  -4.412   2.498  -2.722
  -2.327  -1.931  -2.722
  -1.977  -1.931  -2.722
  -2.240   3.479  -3.026
  -2.589   3.444  -3.026
  -2.930   3.363  -3.026
  -3.257   3.237  -3.026
  -3.564   3.068  -3.026
  -3.847   2.860  -3.026
  -4.099   2.617  -3.026
  -4.316   2.342  -3.026
  -2.240  -1.767  -3.026
  -1.889  -1.756  -3.026
  -1.544  -1.697  -3.026
  -1.209  -1.593  -3.026
  -0.891  -1.446  -3.026
  -0.595  -1.257  -3.026
  -2.592   3.239  -3.310
  -2.935   3.150  -3.310
  -3.260   3.011  -3.310
  -3.562   2.827  -3.310
  -3.834   2.601  -3.310
  -4.070   2.337  -3.310
  -2.241  -1.566  -3.310
  -1.887  -1.553  -3.310
  -1.539  -1.489  -3.310
  -1.204  -1.375  -3.310
  -0.889  -1.213  -3.310
  -2.929   2.906  -3.569
  -3.248   2.754  -3.569
  -3.538   2.554  -3.569
  -3.793   2.310  -3.569
  -4.005   2.028  -3.569
  -2.240  -1.334  -3.569
  -1.888  -1.320  -3.569
  -1.542  -1.249  -3.569
  -1.212  -1.124  -3.569
  -3.014   2.586  -3.801
  -3.317   2.398  -3.801
  -3.580   2.158  -3.801
  -3.795   1.874  -3.801
  -2.330  -1.069  -3.801
  -1.974  -1.069  -3.801
  -1.623  -1.003  -3.801
  -3.078   2.221  -4.002
  -3.349   1.990  -4.002
  -3.565   1.706  -4.002
  -2.419  -0.772  -4.002
  -2.063  -0.791  -4.002
  -3.317   1.529  -4.170
  -3.451   1.204  -4.170
  -2.500  -0.443  -4.170
  -3.114   1.206  -4.303
  -3.176   0.856  -4.303
  -2.936   0.198  -4.303
  -2.664  -0.031  -4.303
  -4.053   1.012   1.068
  -4.519   1.295   0.613
  -4.686   1.439   0.358