 $system timlim=999888777
         mwords=100 $end
 $contrl exetyp=run
         runtyp=energy scftyp=rhf
         icharg=-1 mult=1 units=angs coord=unique
         maxit=50 ispher=1 qmttol=1d-6 icut=12 itol=22 $end
 $scf    dirscf=.t. diis=.t. soscf=.f.
         fdiff=.f. conv=1d-6
         npreo(1)=0,-1,1,9999 $end
 $elpot  iepot=1 where=points $end
 $basis  gbasis=n311 ngauss=6
         ndfunc=1 npfunc=1 diffsp=.t. diffs=.t. $end
 $DATA
TS1a_hfd_irc200_all_revmov.pdb
C1
P     15.0    -0.04200   0.01600  -0.02600 
O      8.0    -0.11700   0.59300   1.41400 
O      8.0     0.94800   0.60000  -0.91500 
F      9.0     0.26800  -1.47200   0.32300 
O      8.0    -1.47600  -0.16200  -0.59900 
C      6.0    -2.15200   0.85600  -1.37700 
H      1.0    -2.35500   1.73600  -0.77300 
H      1.0    -1.53700   1.09700  -2.23400 
H      1.0    -3.06900   0.38700  -1.70100 
C      6.0    -0.07200   2.01300   1.70300 
H      1.0    -0.04300   2.07000   2.78200 
H      1.0     0.84000   2.41900   1.28700 
H      1.0    -0.95100   2.51800   1.31000 
O      8.0    -2.50000   3.32500   0.39000 
H      1.0    -3.05800   4.08700   0.48100 
 $END
 $POINTS
ANGS 3137
  -2.452  -0.906   2.032
  -2.292  -1.247   2.032
  -2.084  -1.561   2.032
   2.511  -0.360   2.032
   2.752   0.016   1.730
   2.727   0.388   1.730
  -2.346  -1.565   1.730
   2.727  -0.356   1.730
   2.931   0.016   1.406
   2.908   0.389   1.406
   2.838   0.755   1.406
   2.838  -0.723   1.406
   2.908  -0.357   1.406
   3.073   0.016   1.064
   3.050   0.391   1.064
   2.982   0.761   1.064
   2.982  -0.729   1.064
   3.050  -0.359   1.064
   3.175   0.016   0.708
   3.089  -0.726   0.708
   3.154  -0.358   0.708
   3.152  -0.727   0.343
  -0.509  -2.270  -2.359
   1.284  -1.904  -2.359
  -0.605  -1.963  -2.606
  -0.232  -2.033  -2.606
   0.148  -2.033  -2.606
   0.521  -1.963  -2.606
   0.875  -1.826  -2.606
   1.198  -1.626  -2.606
  -0.326  -1.717  -2.820
   0.053  -1.737  -2.820
   0.428  -1.676  -2.820
   0.780  -1.535  -2.820
  -0.413  -1.367  -2.999
  -0.042  -1.416  -2.999
   0.329  -1.367  -2.999
  -0.231  -1.057  -3.141
   0.147  -1.057  -3.141
  -0.579  -0.208   4.057
  -0.278  -0.318   4.057
   0.044  -0.318   4.057
   0.345  -0.208   4.057
  -1.169  -0.014   3.937
  -0.976  -0.266   3.937
  -0.724  -0.459   3.937
  -0.431  -0.580   3.937
  -0.117  -0.622   3.937
   0.197  -0.580   3.937
   0.490  -0.459   3.937
   0.742  -0.266   3.937
  -1.529   0.117   3.785
  -1.393  -0.175   3.785
  -1.199  -0.431   3.785
  -0.953  -0.640   3.785
  -0.668  -0.791   3.785
  -0.358  -0.877   3.785
  -0.036  -0.895   3.785
   0.282  -0.842   3.785
   0.581  -0.723   3.785
   0.847  -0.542   3.785
   1.069  -0.309   3.785
   1.235  -0.033   3.785
  -1.833   0.272   3.603
  -1.745  -0.038   3.603
  -1.601  -0.326   3.603
  -1.407  -0.583   3.603
  -1.169  -0.800   3.603
  -0.895  -0.970   3.603
  -0.595  -1.086   3.603
  -0.278  -1.145   3.603
   0.044  -1.145   3.603
   0.361  -1.086   3.603
   0.661  -0.970   3.603
   0.935  -0.800   3.603
   1.173  -0.583   3.603
   1.367  -0.326   3.603
   1.511  -0.038   3.603
  -2.039   0.119   3.394
  -1.938  -0.183   3.394
  -1.790  -0.465   3.394
  -1.599  -0.720   3.394
  -1.369  -0.941   3.394
  -1.107  -1.122   3.394
  -0.819  -1.258   3.394
  -0.513  -1.347   3.394
  -0.197  -1.385   3.394
   0.122  -1.372   3.394
   0.434  -1.309   3.394
   0.732  -1.196   3.394
   1.008  -1.036   3.394
   1.255  -0.835   3.394
   1.466  -0.596   3.394
   1.636  -0.327   3.394
   1.761  -0.034   3.394
  -2.254   0.117   3.160
  -2.162  -0.189   3.160
  -2.026  -0.478   3.160
  -1.850  -0.745   3.160
  -1.636  -0.983   3.160
  -1.391  -1.187   3.160
  -1.118  -1.354   3.160
  -0.824  -1.479   3.160
  -0.515  -1.560   3.160
  -0.197  -1.595   3.160
   0.739  -1.422   3.160
   1.023  -1.276   3.160
   1.283  -1.090   3.160
   1.513  -0.868   3.160
   1.709  -0.615   3.160
   1.865  -0.336   3.160
   1.979  -0.038   3.160
   2.049   0.274   3.160
  -2.483   0.435   2.904
  -2.440   0.121   2.904
  -2.357  -0.185   2.904
  -2.233  -0.476   2.904
  -2.072  -0.749   2.904
  -1.875  -0.997   2.904
  -1.648  -1.217   2.904
  -1.393  -1.405   2.904
  -1.115  -1.558   2.904
   1.531  -1.111   2.904
   1.744  -0.876   2.904
   1.923  -0.615   2.904
   2.066  -0.333   2.904
   2.170  -0.033   2.904
   2.233   0.277   2.904
  -2.620   0.277   2.629
  -2.560  -0.034   2.629
  -2.463  -0.336   2.629
  -2.328  -0.622   2.629
  -2.158  -0.890   2.629
  -1.956  -1.134   2.629
  -1.725  -1.351   2.629
  -1.469  -1.537   2.629
   1.924  -0.890   2.629
   2.094  -0.622   2.629
   2.229  -0.336   2.629
   2.326  -0.034   2.629
   2.386   0.277   2.629
  -2.760   0.593   2.339
  -2.741   0.274   2.339
  -2.683  -0.039   2.339
  -2.588  -0.344   2.339
  -2.457  -0.635   2.339
  -2.292  -0.908   2.339
  -2.095  -1.160   2.339
  -1.870  -1.385   2.339
   2.223  -0.635   2.339
   2.354  -0.344   2.339
   2.449  -0.039   2.339
   2.507   0.274   2.339
  -2.847   0.593   2.037
  -2.828   0.276   2.037
  -2.773  -0.037   2.037
  -2.682  -0.341   2.037
  -2.556  -0.632   2.037
   2.539  -0.037   2.037
   2.594   0.276   2.037
   3.137   0.600   0.831
   3.114   0.919   0.831
   3.319   0.600   0.575
   3.298   0.916   0.575
   3.235   1.226   0.575
   3.235  -0.026   0.575
   3.298   0.284   0.575
   3.471   0.600   0.300
   3.451   0.916   0.300
   3.391   1.227   0.300
   3.294   1.529   0.300
   3.294  -0.329   0.300
   3.391  -0.027   0.300
   3.451   0.284   0.300
   3.591   0.600   0.010
   3.572   0.919   0.010
   3.514   1.232   0.010
   3.419   1.537   0.010
   3.288   1.828   0.010
   3.123   2.101   0.010
   3.288  -0.628   0.010
   3.419  -0.337   0.010
   3.514  -0.032   0.010
   3.572   0.281   0.010
   3.678   0.600  -0.292
   3.659   0.917  -0.292
   3.604   1.230  -0.292
   3.513   1.534  -0.292
   3.387   1.825  -0.292
   3.229   2.100  -0.292
   3.039   2.355  -0.292
   3.229  -0.900  -0.292
   3.387  -0.625  -0.292
   3.513  -0.334  -0.292
   3.604  -0.030  -0.292
   3.659   0.283  -0.292
   3.730   0.600  -0.601
   3.712   0.917  -0.601
   3.658   1.230  -0.601
   3.569   1.535  -0.601
   3.445   1.828  -0.601
   3.289   2.104  -0.601
   3.102   2.361  -0.601
   2.887   2.595  -0.601
   2.647   2.803  -0.601
   3.102  -1.161  -0.601
   3.289  -0.904  -0.601
   3.445  -0.628  -0.601
   3.569  -0.335  -0.601
   3.658  -0.030  -0.601
   3.712   0.283  -0.601
   3.748   0.600  -0.915
   3.730   0.914  -0.915
   3.678   1.223  -0.915
   3.591   1.525  -0.915
   3.471   1.815  -0.915
   3.319   2.090  -0.915
   3.137   2.346  -0.915
   2.928   2.580  -0.915
   2.694   2.789  -0.915
   2.438   2.971  -0.915
   2.163   3.123  -0.915
   2.928  -1.380  -0.915
   3.137  -1.146  -0.915
   3.319  -0.890  -0.915
   3.471  -0.615  -0.915
   3.591  -0.325  -0.915
   3.678  -0.023  -0.915
   3.730   0.286  -0.915
   3.730   0.600  -1.228
   3.712   0.917  -1.228
   3.658   1.230  -1.228
   3.569   1.535  -1.228
   3.445   1.828  -1.228
   3.289   2.104  -1.228
   3.102   2.361  -1.228
   2.887   2.595  -1.228
   2.647   2.803  -1.228
   2.385   2.983  -1.228
   2.104   3.131  -1.228
   1.808   3.246  -1.228
   1.501   3.327  -1.228
   1.186   3.372  -1.228
   0.869   3.381  -1.228
   0.552   3.354  -1.228
   0.241   3.291  -1.228
  -0.061   3.193  -1.228
   2.887  -1.395  -1.228
   3.102  -1.161  -1.228
   3.289  -0.904  -1.228
   3.445  -0.628  -1.228
   3.569  -0.335  -1.228
   3.658  -0.030  -1.228
   3.712   0.283  -1.228
   3.678   0.600  -1.538
   3.659   0.917  -1.538
   3.604   1.230  -1.538
   3.513   1.534  -1.538
   3.387   1.825  -1.538
   3.229   2.100  -1.538
   3.039   2.355  -1.538
   2.821   2.586  -1.538
   2.578   2.790  -1.538
   2.313   2.964  -1.538
   2.029   3.107  -1.538
   1.731   3.215  -1.538
   1.422   3.288  -1.538
   1.107   3.325  -1.538
   0.789   3.325  -1.538
   0.474   3.288  -1.538
   0.165   3.215  -1.538
   2.578  -1.590  -1.538
   2.821  -1.386  -1.538
   3.039  -1.155  -1.538
   3.229  -0.900  -1.538
   3.387  -0.625  -1.538
   3.513  -0.334  -1.538
   3.604  -0.030  -1.538
   3.659   0.283  -1.538
   3.591   0.600  -1.840
   3.572   0.919  -1.840
   3.514   1.232  -1.840
   3.419   1.537  -1.840
   3.288   1.828  -1.840
   3.123   2.101  -1.840
   2.926   2.353  -1.840
   2.701   2.578  -1.840
   2.449   2.775  -1.840
   2.176   2.940  -1.840
   1.885   3.071  -1.840
   1.580   3.166  -1.840
   1.267   3.224  -1.840
   0.948   3.243  -1.840
   0.629   3.224  -1.840
   0.316   3.166  -1.840
   2.176  -1.740  -1.840
   2.449  -1.575  -1.840
   2.701  -1.378  -1.840
   2.926  -1.153  -1.840
   3.123  -0.901  -1.840
   3.288  -0.628  -1.840
   3.419  -0.337  -1.840
   3.514  -0.032  -1.840
   3.572   0.281  -1.840
   3.471   0.600  -2.130
   3.451   0.916  -2.130
   3.391   1.227  -2.130
   3.294   1.529  -2.130
   3.159   1.815  -2.130
   2.989   2.083  -2.130
   2.787   2.327  -2.130
   2.556   2.544  -2.130
   2.300   2.730  -2.130
   2.022   2.883  -2.130
   1.728   2.999  -2.130
   1.421   3.078  -2.130
   1.106   3.118  -2.130
   0.790   3.118  -2.130
   0.475   3.078  -2.130
   2.022  -1.683  -2.130
   2.300  -1.530  -2.130
   2.556  -1.344  -2.130
   2.787  -1.127  -2.130
   2.989  -0.883  -2.130
   3.159  -0.615  -2.130
   3.294  -0.329  -2.130
   3.391  -0.027  -2.130
   3.451   0.284  -2.130
   3.319   0.600  -2.405
   3.298   0.916  -2.405
   3.235   1.226  -2.405
   3.131   1.526  -2.405
   2.988   1.808  -2.405
   2.809   2.069  -2.405
   2.596   2.304  -2.405
   2.354   2.509  -2.405
   2.087   2.679  -2.405
   1.800   2.812  -2.405
   1.498   2.906  -2.405
   1.185   2.959  -2.405
   0.869   2.970  -2.405
   0.554   2.938  -2.405
   1.498  -1.706  -2.405
   1.800  -1.612  -2.405
   2.087  -1.479  -2.405
   2.354  -1.309  -2.405
   2.596  -1.104  -2.405
   2.809  -0.869  -2.405
   2.988  -0.608  -2.405
   3.131  -0.326  -2.405
   3.235  -0.026  -2.405
   3.298   0.284  -2.405
   3.137   0.600  -2.661
   3.114   0.919  -2.661
   3.044   1.231  -2.661
   2.930   1.529  -2.661
   2.774   1.808  -2.661
   2.578   2.061  -2.661
   2.348   2.283  -2.661
   2.088   2.469  -2.661
   1.804   2.615  -2.661
   1.502   2.718  -2.661
   1.187   2.776  -2.661
   0.868   2.788  -2.661
   0.550   2.753  -2.661
   1.187  -1.576  -2.661
   1.502  -1.518  -2.661
   1.804  -1.415  -2.661
   2.088  -1.269  -2.661
   2.348  -1.083  -2.661
   2.578  -0.861  -2.661
   2.774  -0.608  -2.661
   2.930  -0.329  -2.661
   3.044  -0.031  -2.661
   3.114   0.281  -2.661
   2.928   0.600  -2.895
   2.902   0.918  -2.895
   2.826   1.227  -2.895
   2.701   1.520  -2.895
   2.531   1.789  -2.895
   2.320   2.028  -2.895
   2.073   2.229  -2.895
   1.797   2.389  -2.895
   1.499   2.502  -2.895
   1.187   2.565  -2.895
   0.868   2.578  -2.895
   0.552   2.540  -2.895
   0.868  -1.378  -2.895
   1.187  -1.365  -2.895
   1.499  -1.302  -2.895
   1.797  -1.189  -2.895
   2.073  -1.029  -2.895
   2.320  -0.828  -2.895
   2.531  -0.589  -2.895
   2.701  -0.320  -2.895
   2.826  -0.027  -2.895
   2.902   0.282  -2.895
   2.694   0.600  -3.104
   2.664   0.921  -3.104
   2.576   1.231  -3.104
   2.432   1.519  -3.104
   2.238   1.776  -3.104
   2.000   1.993  -3.104
   1.726   2.163  -3.104
   1.426   2.279  -3.104
   1.109   2.338  -3.104
   0.787   2.338  -3.104
   0.470  -1.079  -3.104
   0.787  -1.138  -3.104
   1.109  -1.138  -3.104
   1.426  -1.079  -3.104
   1.726  -0.963  -3.104
   2.000  -0.793  -3.104
   2.238  -0.576  -3.104
   2.432  -0.319  -3.104
   2.576  -0.031  -3.104
   2.664   0.279  -3.104
   2.438   0.600  -3.286
   2.403   0.920  -3.286
   2.300   1.226  -3.286
   2.134   1.502  -3.286
   1.912   1.735  -3.286
   1.646   1.916  -3.286
   1.347   2.035  -3.286
   1.029   2.088  -3.286
   0.707   2.070  -3.286
   0.112  -0.633  -3.286
   0.397  -0.784  -3.286
   0.707  -0.870  -3.286
   1.029  -0.888  -3.286
   1.347  -0.835  -3.286
   1.646  -0.716  -3.286
   1.912  -0.535  -3.286
   2.134  -0.302  -3.286
   2.300  -0.026  -3.286
   2.403   0.280  -3.286
   2.163   0.600  -3.438
   2.121   0.914  -3.438
   2.000   1.207  -3.438
   1.807   1.459  -3.438
   1.555   1.652  -3.438
   1.262   1.773  -3.438
   0.948   1.815  -3.438
   0.341  -0.452  -3.438
   0.634  -0.573  -3.438
   0.948  -0.615  -3.438
   1.262  -0.573  -3.438
   1.555  -0.452  -3.438
   1.807  -0.259  -3.438
   2.000  -0.007  -3.438
   2.121   0.286  -3.438
   1.873   0.600  -3.558
   1.817   0.916  -3.558
   1.656   1.194  -3.558
   1.410   1.401  -3.558
   1.109   1.511  -3.558
   0.787   1.511  -3.558
   0.486  -0.201  -3.558
   0.787  -0.311  -3.558
   1.109  -0.311  -3.558
   1.410  -0.201  -3.558
   1.656   0.006  -3.558
   1.817   0.284  -3.558
   1.571   0.600  -3.645
   1.488   0.912  -3.645
   1.260   1.140  -3.645
   0.948   1.223  -3.645
   0.636   0.060  -3.645
   0.948  -0.023  -3.645
   1.260   0.060  -3.645
   1.488   0.288  -3.645
   1.262   0.600  -3.697
   1.105   0.872  -3.697
   0.791   0.872  -3.697
   0.634   0.600  -3.697
   0.791   0.328  -3.697
   1.105   0.328  -3.697
   0.948   0.600  -3.715
   0.589  -1.472   3.175
   0.107  -1.750   3.175
   0.429  -1.750   3.175
   0.907  -1.472   3.121
  -0.285  -1.791   3.121
  -0.051  -2.025   3.121
   0.268  -2.111   3.121
   0.587  -2.025   3.121
   0.821  -1.791   3.121
   1.216  -1.472   3.032
  -0.623  -1.796   3.032
  -0.458  -2.081   3.032
  -0.206  -2.293   3.032
   0.103  -2.405   3.032
   0.433  -2.405   3.032
   0.742  -2.293   3.032
   0.994  -2.081   3.032
   1.159  -1.796   3.032
   1.513  -1.472   2.909
  -0.935  -1.794   2.909
  -0.810  -2.095   2.909
  -0.613  -2.353   2.909
  -0.355  -2.550   2.909
  -0.054  -2.675   2.909
   0.268  -2.717   2.909
   0.590  -2.675   2.909
   0.891  -2.550   2.909
   1.149  -2.353   2.909
   1.346  -2.095   2.909
   1.471  -1.794   2.909
   1.795  -1.472   2.753
   1.759  -1.144   2.753
  -1.250  -1.637   2.753
  -1.179  -1.960   2.753
  -1.040  -2.259   2.753
  -0.841  -2.522   2.753
  -0.589  -2.736   2.753
  -0.297  -2.890   2.753
   0.021  -2.979   2.753
   0.351  -2.997   2.753
   0.676  -2.943   2.753
   0.983  -2.821   2.753
   1.257  -2.636   2.753
   1.484  -2.396   2.753
   1.654  -2.113   2.753
   1.759  -1.800   2.753
   2.057  -1.472   2.567
   2.027  -1.143   2.567
  -1.491  -1.801   2.567
  -1.401  -2.118   2.567
  -1.253  -2.414   2.567
  -1.054  -2.678   2.567
  -0.810  -2.900   2.567
  -0.530  -3.074   2.567
  -0.222  -3.193   2.567
   0.103  -3.254   2.567
   0.433  -3.254   2.567
   0.758  -3.193   2.567
   1.066  -3.074   2.567
   1.346  -2.900   2.567
   1.590  -2.678   2.567
   1.789  -2.414   2.567
   1.937  -2.118   2.567
   2.027  -1.801   2.567
   2.297  -1.472   2.352
   2.271  -1.146   2.352
   2.193  -0.829   2.352
  -1.755  -1.635   2.352
  -1.702  -1.958   2.352
  -1.599  -2.267   2.352
  -1.447  -2.557   2.352
  -1.251  -2.818   2.352
  -1.015  -3.044   2.352
  -0.747  -3.230   2.352
  -0.452  -3.370   2.352
  -0.138  -3.460   2.352
   0.186  -3.500   2.352
   0.513  -3.487   2.352
   0.833  -3.421   2.352
   1.138  -3.305   2.352
   1.421  -3.142   2.352
   1.674  -2.936   2.352
   1.890  -2.691   2.352
   2.065  -2.415   2.352
   2.193  -2.115   2.352
   2.271  -1.798   2.352
   2.512  -1.472   2.112
   2.488  -1.145   2.112
   2.417  -0.826   2.112
  -1.970  -1.636   2.112
  -1.922  -1.960   2.112
  -1.828  -2.274   2.112
  -1.689  -2.570   2.112
  -1.508  -2.843   2.112
  -1.289  -3.087   2.112
  -1.038  -3.297   2.112
  -0.758  -3.468   2.112
  -0.457  -3.596   2.112
  -0.140  -3.679   2.112
   0.186  -3.714   2.112
   0.513  -3.702   2.112
   0.836  -3.643   2.112
   1.146  -3.537   2.112
   1.437  -3.387   2.112
   1.703  -3.197   2.112
   1.939  -2.969   2.112
   2.139  -2.710   2.112
   2.300  -2.424   2.112
   2.417  -2.118   2.112
   2.488  -1.799   2.112
   2.698  -1.472   1.850
   2.676  -1.148   1.850
   2.612  -0.830   1.850
  -2.113  -1.956   1.850
  -2.028  -2.269   1.850
  -1.901  -2.568   1.850
  -1.735  -2.847   1.850
  -1.534  -3.102   1.850
  -1.301  -3.328   1.850
  -1.040  -3.520   1.850
  -0.755  -3.676   1.850
  -0.452  -3.793   1.850
  -0.136  -3.868   1.850
   0.187  -3.901   1.850
   0.511  -3.890   1.850
   0.831  -3.836   1.850
   1.141  -3.740   1.850
   1.436  -3.603   1.850
   1.709  -3.428   1.850
   1.957  -3.219   1.850
   2.175  -2.978   1.850
   2.359  -2.710   1.850
   2.505  -2.421   1.850
   2.612  -2.114   1.850
   2.676  -1.796   1.850
   2.854  -1.472   1.568
   2.833  -1.148   1.568
   2.773  -0.829   1.568
  -2.297  -1.796   1.568
  -2.237  -2.115   1.568
  -2.136  -2.424   1.568
  -1.998  -2.718   1.568
  -1.824  -2.992   1.568
  -1.617  -3.242   1.568
  -1.380  -3.464   1.568
  -1.118  -3.655   1.568
  -0.833  -3.812   1.568
  -0.531  -3.931   1.568
  -0.217  -4.012   1.568
   0.106  -4.053   1.568
   0.430  -4.053   1.568
   0.753  -4.012   1.568
   1.067  -3.931   1.568
   1.369  -3.812   1.568
   1.654  -3.655   1.568
   1.916  -3.464   1.568
   2.153  -3.242   1.568
   2.360  -2.992   1.568
   2.534  -2.718   1.568
   2.672  -2.424   1.568
   2.773  -2.115   1.568
   2.833  -1.796   1.568
   2.977  -1.472   1.271
   2.957  -1.145   1.271
   2.898  -0.824   1.271
  -2.362  -2.120   1.271
  -2.265  -2.433   1.271
  -2.131  -2.731   1.271
  -1.961  -3.011   1.271
  -1.760  -3.268   1.271
  -1.528  -3.500   1.271
  -1.271  -3.701   1.271
  -0.991  -3.871   1.271
  -0.693  -4.005   1.271
  -0.380  -4.102   1.271
  -0.059  -4.161   1.271
   0.268  -4.181   1.271
   0.595  -4.161   1.271
   0.916  -4.102   1.271
   1.229  -4.005   1.271
   1.527  -3.871   1.271
   1.807  -3.701   1.271
   2.064  -3.500   1.271
   2.296  -3.268   1.271
   2.497  -3.011   1.271
   2.667  -2.731   1.271
   2.801  -2.433   1.271
   2.898  -2.120   1.271
   2.957  -1.799   1.271
   3.066  -1.472   0.962
   3.047  -1.147   0.962
  -2.361  -2.429   0.962
  -2.232  -2.728   0.962
  -2.070  -3.010   0.962
  -1.875  -3.271   0.962
  -1.652  -3.507   0.962
  -1.403  -3.716   0.962
  -1.131  -3.895   0.962
  -0.840  -4.041   0.962
  -0.534  -4.152   0.962
  -0.218  -4.228   0.962
   0.105  -4.265   0.962
   0.431  -4.265   0.962
   0.754  -4.228   0.962
   1.070  -4.152   0.962
   1.376  -4.041   0.962
   1.667  -3.895   0.962
   1.939  -3.716   0.962
   2.188  -3.507   0.962
   2.411  -3.271   0.962
   2.606  -3.010   0.962
   2.768  -2.728   0.962
   2.897  -2.429   0.962
   2.991  -2.117   0.962
   3.047  -1.797   0.962
   3.120  -1.472   0.644
   3.101  -1.147   0.644
  -2.359  -2.582   0.644
  -2.215  -2.874   0.644
  -2.039  -3.148   0.644
  -1.833  -3.400   0.644
  -1.600  -3.627   0.644
  -1.342  -3.826   0.644
  -1.063  -3.994   0.644
  -0.767  -4.130   0.644
  -0.457  -4.230   0.644
  -0.138  -4.295   0.644
   0.187  -4.323   0.644
   0.512  -4.313   0.644
   0.834  -4.267   0.644
   1.149  -4.184   0.644
   1.453  -4.066   0.644
   1.741  -3.914   0.644
   2.010  -3.730   0.644
   2.256  -3.517   0.644
   2.476  -3.277   0.644
   2.667  -3.014   0.644
   2.827  -2.730   0.644
   2.954  -2.430   0.644
   3.046  -2.118   0.644
   3.101  -1.797   0.644
   3.138  -1.472   0.323
   3.120  -1.151   0.323
  -2.318  -2.717   0.323
  -2.162  -2.999   0.323
  -1.976  -3.261   0.323
  -1.761  -3.501   0.323
  -1.521  -3.716   0.323
  -1.259  -3.902   0.323
  -0.977  -4.058   0.323
  -0.680  -4.181   0.323
  -0.371  -4.270   0.323
  -0.053  -4.324   0.323
   0.268  -4.342   0.323
   0.589  -4.324   0.323
   0.907  -4.270   0.323
   1.216  -4.181   0.323
   1.513  -4.058   0.323
   1.795  -3.902   0.323
   2.057  -3.716   0.323
   2.297  -3.501   0.323
   2.512  -3.261   0.323
   2.698  -2.999   0.323
   2.854  -2.717   0.323
   2.977  -2.420   0.323
   3.066  -2.111   0.323
   3.120  -1.793   0.323
   3.120  -1.472   0.002
   3.101  -1.147   0.002
  -2.215  -2.874   0.002
  -2.039  -3.148   0.002
  -1.833  -3.400   0.002
  -1.600  -3.627   0.002
  -1.342  -3.826   0.002
  -1.063  -3.994   0.002
  -0.767  -4.130   0.002
  -0.457  -4.230   0.002
  -0.138  -4.295   0.002
   0.187  -4.323   0.002
   0.512  -4.313   0.002
   0.834  -4.267   0.002
   1.149  -4.184   0.002
   1.453  -4.066   0.002
   1.741  -3.914   0.002
   2.010  -3.730   0.002
   2.256  -3.517   0.002
   2.476  -3.277   0.002
   2.667  -3.014   0.002
   2.827  -2.730   0.002
   2.954  -2.430   0.002
   3.046  -2.118   0.002
   3.101  -1.797   0.002
   3.066  -1.472  -0.316
  -2.070  -3.010  -0.316
  -1.875  -3.271  -0.316
  -1.652  -3.507  -0.316
  -1.403  -3.716  -0.316
  -1.131  -3.895  -0.316
  -0.840  -4.041  -0.316
  -0.534  -4.152  -0.316
  -0.218  -4.228  -0.316
   0.105  -4.265  -0.316
   0.431  -4.265  -0.316
   0.754  -4.228  -0.316
   1.070  -4.153  -0.316
   1.376  -4.041  -0.316
   1.667  -3.895  -0.316
   1.939  -3.716  -0.316
   2.188  -3.507  -0.316
   2.411  -3.271  -0.316
   2.606  -3.010  -0.316
   2.768  -2.728  -0.316
   2.897  -2.429  -0.316
   2.991  -2.117  -0.316
   3.047  -1.797  -0.316
   2.977  -1.472  -0.625
  -1.961  -3.011  -0.625
  -1.760  -3.268  -0.625
  -1.528  -3.500  -0.625
  -1.271  -3.701  -0.625
  -0.991  -3.871  -0.625
  -0.693  -4.005  -0.625
  -0.380  -4.102  -0.625
  -0.059  -4.161  -0.625
   0.268  -4.181  -0.625
   0.595  -4.161  -0.625
   0.916  -4.102  -0.625
   1.229  -4.005  -0.625
   1.527  -3.871  -0.625
   1.807  -3.701  -0.625
   2.064  -3.500  -0.625
   2.296  -3.268  -0.625
   2.497  -3.011  -0.625
   2.667  -2.731  -0.625
   2.801  -2.433  -0.625
   2.898  -2.120  -0.625
   2.957  -1.799  -0.625
   2.854  -1.472  -0.922
  -1.824  -2.992  -0.922
  -1.617  -3.242  -0.922
  -1.380  -3.464  -0.922
  -1.118  -3.655  -0.922
  -0.833  -3.812  -0.922
  -0.531  -3.931  -0.922
  -0.217  -4.012  -0.922
   0.106  -4.053  -0.922
   0.430  -4.053  -0.922
   0.753  -4.012  -0.922
   1.067  -3.931  -0.922
   1.369  -3.812  -0.922
   1.654  -3.655  -0.922
   1.916  -3.464  -0.922
   2.153  -3.242  -0.922
   2.360  -2.992  -0.922
   2.534  -2.718  -0.922
   2.672  -2.424  -0.922
   2.773  -2.115  -0.922
   2.833  -1.796  -0.922
  -1.534  -3.102  -1.204
  -1.301  -3.328  -1.204
  -1.040  -3.520  -1.204
  -0.755  -3.676  -1.204
  -0.452  -3.793  -1.204
  -0.136  -3.868  -1.204
   0.187  -3.901  -1.204
   0.511  -3.890  -1.204
   0.831  -3.836  -1.204
   1.141  -3.740  -1.204
   1.436  -3.603  -1.204
   1.709  -3.428  -1.204
   1.957  -3.219  -1.204
   2.175  -2.978  -1.204
   2.359  -2.710  -1.204
   2.505  -2.421  -1.204
   2.612  -2.114  -1.204
   2.676  -1.796  -1.204
  -1.508  -2.843  -1.466
  -1.289  -3.087  -1.466
  -1.038  -3.297  -1.466
  -0.758  -3.468  -1.466
  -0.457  -3.596  -1.466
  -0.140  -3.679  -1.466
   0.186  -3.714  -1.466
   0.513  -3.702  -1.466
   0.836  -3.643  -1.466
   1.146  -3.537  -1.466
   1.437  -3.387  -1.466
   1.703  -3.197  -1.466
   1.939  -2.969  -1.466
   2.139  -2.710  -1.466
   2.300  -2.424  -1.466
   2.417  -2.118  -1.466
   2.488  -1.799  -1.466
  -1.251  -2.818  -1.706
  -1.015  -3.044  -1.706
  -0.747  -3.230  -1.706
  -0.452  -3.370  -1.706
  -0.138  -3.460  -1.706
   0.186  -3.500  -1.706
   0.513  -3.487  -1.706
   0.833  -3.421  -1.706
   1.138  -3.305  -1.706
   1.421  -3.142  -1.706
   1.674  -2.936  -1.706
   1.890  -2.691  -1.706
   2.065  -2.415  -1.706
   2.193  -2.115  -1.706
   2.271  -1.798  -1.706
  -1.054  -2.678  -1.921
  -0.810  -2.900  -1.921
  -0.530  -3.074  -1.921
  -0.222  -3.193  -1.921
   0.103  -3.254  -1.921
   0.433  -3.254  -1.921
   0.758  -3.193  -1.921
   1.066  -3.074  -1.921
   1.346  -2.900  -1.921
   1.590  -2.678  -1.921
   1.789  -2.414  -1.921
   1.937  -2.118  -1.921
   2.027  -1.801  -1.921
  -0.841  -2.522  -2.107
  -0.589  -2.736  -2.107
  -0.297  -2.890  -2.107
   0.021  -2.979  -2.107
   0.351  -2.997  -2.107
   0.676  -2.943  -2.107
   0.983  -2.821  -2.107
   1.257  -2.636  -2.107
   1.484  -2.396  -2.107
   1.654  -2.113  -2.107
  -0.613  -2.353  -2.263
  -0.355  -2.550  -2.263
  -0.054  -2.675  -2.263
   0.268  -2.717  -2.263
   0.590  -2.675  -2.263
   0.891  -2.550  -2.263
   1.149  -2.353  -2.263
   1.346  -2.095  -2.263
  -0.206  -2.293  -2.386
   0.103  -2.406  -2.386
   0.433  -2.406  -2.386
   0.742  -2.293  -2.386
   0.994  -2.081  -2.386
  -2.888   0.314   1.772
  -2.957  -0.001   1.772
  -2.957  -0.323   1.772
  -2.888  -0.638   1.772
  -2.752  -0.930   1.772
  -2.558  -1.186   1.772
  -3.104   0.469   1.590
  -3.192   0.159   1.590
  -3.222  -0.162   1.590
  -3.192  -0.483   1.590
  -3.104  -0.793   1.590
  -2.960  -1.081   1.590
  -2.766  -1.338   1.590
  -2.528  -1.555   1.590
  -3.449  -0.003   1.381
  -3.449  -0.321   1.381
  -3.398  -0.636   1.381
  -3.297  -0.938   1.381
  -3.149  -1.220   1.381
  -2.958  -1.475   1.381
  -2.728  -1.696   1.381
  -2.466  -1.877   1.381
  -3.659  -0.322   1.147
  -3.613  -0.638   1.147
  -3.521  -0.944   1.147
  -3.385  -1.233   1.147
  -3.209  -1.500   1.147
  -2.995  -1.738   1.147
  -2.750  -1.942   1.147
  -2.477  -2.109   1.147
  -3.799  -0.634   0.891
  -3.716  -0.940   0.891
  -3.592  -1.231   0.891
  -3.431  -1.504   0.891
  -3.234  -1.752   0.891
  -3.007  -1.972   0.891
  -2.752  -2.160   0.891
  -2.474  -2.313   0.891
  -3.919  -0.789   0.616
  -3.822  -1.091   0.616
  -3.687  -1.377   0.616
  -3.517  -1.645   0.616
  -3.315  -1.889   0.616
  -3.084  -2.106   0.616
  -2.828  -2.292   0.616
  -2.550  -2.445   0.616
  -3.947  -1.099   0.326
  -3.816  -1.390   0.326
  -3.651  -1.663   0.326
  -3.454  -1.915   0.326
  -3.229  -2.140   0.326
  -2.977  -2.337   0.326
  -2.704  -2.502   0.326
  -2.413  -2.633   0.326
  -3.915  -1.387   0.024
  -3.757  -1.662   0.024
  -3.567  -1.917   0.024
  -3.349  -2.148   0.024
  -3.106  -2.352   0.024
  -2.841  -2.526   0.024
  -2.557  -2.669   0.024
  -3.727  -1.797  -0.285
  -3.526  -2.043  -0.285
  -3.298  -2.265  -0.285
  -3.047  -2.459  -0.285
  -2.774  -2.623  -0.285
  -2.485  -2.755  -0.285
  -2.183  -2.853  -0.285
  -3.665  -1.908  -0.599
  -3.456  -2.142  -0.599
  -3.222  -2.351  -0.599
  -2.966  -2.533  -0.599
  -2.691  -2.685  -0.599
  -2.401  -2.805  -0.599
  -2.099  -2.892  -0.599
  -3.298  -2.265  -0.912
  -3.047  -2.459  -0.912
  -2.774  -2.623  -0.912
  -2.485  -2.755  -0.912
  -2.183  -2.853  -0.912
  -3.106  -2.352  -1.222
  -2.841  -2.526  -1.222
  -2.557  -2.669  -1.222
  -2.259  -2.777  -1.222
  -1.950  -2.850  -1.222
  -2.977  -2.337  -1.524
  -2.704  -2.502  -1.524
  -2.413  -2.633  -1.524
  -2.108  -2.728  -1.524
  -1.795  -2.786  -1.524
  -2.828  -2.292  -1.814
  -2.550  -2.445  -1.814
  -2.256  -2.561  -1.814
  -1.949  -2.640  -1.814
  -1.634  -2.680  -1.814
  -1.318  -2.680  -1.814
  -2.474  -2.313  -2.089
  -2.178  -2.426  -2.089
  -1.870  -2.500  -2.089
  -1.555  -2.532  -2.089
  -1.239  -2.521  -2.089
  -2.477  -2.109  -2.345
  -2.183  -2.234  -2.345
  -1.874  -2.315  -2.345
  -1.556  -2.350  -2.345
  -1.237  -2.338  -2.345
  -0.922  -2.280  -2.345
  -2.178  -2.013  -2.579
  -1.872  -2.102  -2.579
  -1.556  -2.140  -2.579
  -1.237  -2.127  -2.579
  -0.925  -2.064  -2.579
  -1.637  -1.900  -2.788
  -1.315  -1.900  -2.788
  -0.998  -1.841  -2.788
  -0.698  -1.725  -2.788
  -1.077  -1.597  -2.970
  -0.778  -1.478  -2.970
  -3.176   0.856   1.549
  -3.497   0.856   1.416
  -3.451   0.508   1.416
  -3.792   0.678   1.248
  -3.715   0.329   1.248
  -4.085   0.856   1.047
  -4.052   0.501   1.047
  -3.954   0.158   1.047
  -3.795  -0.161   1.047
  -4.337   1.032   0.815
  -4.337   0.680   0.815
  -4.280   0.331   0.815
  -4.169  -0.003   0.815
  -4.005  -0.316   0.815
  -4.569   1.033   0.556
  -4.569   0.679   0.556
  -4.518   0.329   0.556
  -4.416  -0.010   0.556
  -4.266  -0.330   0.556
  -4.070  -0.625   0.556
  -4.724   1.379   0.272
  -4.771   1.031   0.272
  -4.771   0.681   0.272
  -4.857   1.551  -0.032
  -4.923   1.206  -0.032
  -4.993   1.556  -0.353
  -4.992   1.890  -0.687
  -4.990   2.055  -1.030
  -0.219   3.280  -1.377
  -4.777   2.505  -1.377
  -4.945   2.201  -1.377
  -0.561   3.494  -1.724
  -4.644   2.667  -1.724
  -4.834   2.371  -1.724
  -0.955   3.631  -2.067
  -4.226   3.054  -2.067
  -4.467   2.799  -2.067
  -4.677   2.517  -2.067
  -1.452   3.697  -2.401
  -1.799   3.761  -2.401
  -2.152   3.782  -2.401
  -2.505   3.761  -2.401
  -3.190   3.592  -2.401
  -3.512   3.447  -2.401
  -3.814   3.264  -2.401
  -4.092   3.046  -2.401
  -4.342   2.796  -2.401
  -4.560   2.518  -2.401
  -1.977   3.643  -2.722
  -2.327   3.643  -2.722
  -2.675   3.600  -2.722
  -3.015   3.512  -2.722
  -3.341   3.383  -2.722
  -3.649   3.214  -2.722
  -3.932   3.008  -2.722
  -4.188   2.768  -2.722
  -4.412   2.498  -2.722
  -2.327  -1.931  -2.722
  -1.977  -1.931  -2.722
  -2.240   3.479  -3.026
  -2.589   3.444  -3.026
  -2.930   3.363  -3.026
  -3.257   3.237  -3.026
  -3.564   3.068  -3.026
  -3.847   2.860  -3.026
  -4.099   2.617  -3.026
  -4.316   2.342  -3.026
  -2.240  -1.767  -3.026
  -1.889  -1.756  -3.026
  -1.544  -1.697  -3.026
  -1.209  -1.593  -3.026
  -0.891  -1.446  -3.026
  -0.595  -1.257  -3.026
  -2.592   3.239  -3.310
  -2.935   3.150  -3.310
  -3.260   3.011  -3.310
  -3.562   2.827  -3.310
  -3.834   2.601  -3.310
  -4.070   2.337  -3.310
  -2.241  -1.566  -3.310
  -1.887  -1.553  -3.310
  -1.539  -1.489  -3.310
  -1.204  -1.375  -3.310
  -0.889  -1.213  -3.310
  -2.929   2.906  -3.569
  -3.248   2.754  -3.569
  -3.538   2.554  -3.569
  -3.793   2.310  -3.569
  -4.005   2.028  -3.569
  -2.240  -1.334  -3.569
  -1.888  -1.320  -3.569
  -1.542  -1.249  -3.569
  -1.212  -1.124  -3.569
  -3.014   2.586  -3.801
  -3.317   2.398  -3.801
  -3.580   2.158  -3.801
  -3.795   1.874  -3.801
  -2.330  -1.069  -3.801
  -1.974  -1.069  -3.801
  -1.623  -1.003  -3.801
  -3.078   2.221  -4.002
  -3.349   1.990  -4.002
  -3.565   1.706  -4.002
  -2.419  -0.772  -4.002
  -2.063  -0.791  -4.002
  -3.317   1.529  -4.170
  -3.451   1.204  -4.170
  -2.500  -0.443  -4.170
  -3.114   1.206  -4.303
  -3.176   0.856  -4.303
  -3.114   0.506  -4.303
  -2.936   0.198  -4.303
  -2.664  -0.031  -4.303