 $system timlim=999888777
         mwords=100 $end
 $contrl exetyp=run
         runtyp=energy scftyp=rhf
         icharg=-1 mult=1 units=angs coord=unique
         maxit=50 ispher=1 qmttol=1d-6 icut=12 itol=22 $end
 $scf    dirscf=.t. diis=.t. soscf=.f.
         fdiff=.f. conv=1d-6
         npreo(1)=0,-1,1,9999 $end
 $elpot  iepot=1 where=points $end
 $basis  gbasis=n311 ngauss=6
         ndfunc=1 npfunc=1 diffsp=.t. diffs=.t. $end
 $DATA
TS1a_hfd_irc200_all_revmov.pdb
C1
P     15.0    -0.04200   0.01600  -0.02600 
O      8.0    -0.11800   0.58100   1.41900 
O      8.0     0.94700   0.60900  -0.91000 
F      9.0     0.27200  -1.47400   0.31100 
O      8.0    -1.47600  -0.16200  -0.59900 
C      6.0    -2.15200   0.85600  -1.37700 
H      1.0    -2.34400   1.74200  -0.77700 
H      1.0    -1.54200   1.08700  -2.24100 
H      1.0    -3.07600   0.39100  -1.69000 
C      6.0    -0.06800   1.99700   1.72100 
H      1.0    -0.05400   2.04500   2.80100 
H      1.0     0.85400   2.40000   1.32200 
H      1.0    -0.93500   2.51300   1.31800 
O      8.0    -2.47100   3.33100   0.38600 
H      1.0    -2.99300   4.12100   0.44800 
 $END
 $POINTS
ANGS 3136
  -2.452  -0.906   2.032
  -2.292  -1.247   2.032
  -2.084  -1.561   2.032
   2.511  -0.360   2.032
   2.752   0.016   1.730
   2.727   0.388   1.730
  -2.346  -1.565   1.730
   2.653  -0.722   1.730
   2.727  -0.356   1.730
   2.931   0.016   1.406
   2.908   0.389   1.406
   2.838  -0.723   1.406
   2.908  -0.357   1.406
   3.073   0.016   1.064
   3.050   0.391   1.064
   2.982   0.761   1.064
   2.982  -0.729   1.064
   3.050  -0.359   1.064
   3.175   0.016   0.708
   3.089  -0.726   0.708
   3.154  -0.358   0.708
   3.152  -0.727   0.343
  -0.509  -2.270  -2.359
   1.284  -1.904  -2.359
  -0.605  -1.963  -2.606
  -0.232  -2.033  -2.606
   0.148  -2.033  -2.606
   0.521  -1.963  -2.606
   0.875  -1.826  -2.606
   1.198  -1.626  -2.606
  -0.326  -1.717  -2.820
   0.053  -1.737  -2.820
   0.428  -1.676  -2.820
   0.780  -1.535  -2.820
  -0.413  -1.367  -2.999
  -0.042  -1.416  -2.999
   0.329  -1.367  -2.999
  -0.231  -1.057  -3.141
   0.147  -1.057  -3.141
  -0.580  -0.220   4.062
  -0.279  -0.330   4.062
   0.043  -0.330   4.062
   0.344  -0.220   4.062
  -1.170  -0.026   3.942
  -0.977  -0.278   3.942
  -0.725  -0.471   3.942
  -0.432  -0.592   3.942
  -0.118  -0.634   3.942
   0.196  -0.592   3.942
   0.489  -0.471   3.942
   0.741  -0.278   3.942
  -1.530   0.105   3.790
  -1.394  -0.187   3.790
  -1.200  -0.443   3.790
  -0.954  -0.652   3.790
  -0.669  -0.803   3.790
  -0.359  -0.889   3.790
  -0.037  -0.907   3.790
   0.281  -0.854   3.790
   0.580  -0.735   3.790
   0.846  -0.554   3.790
   1.068  -0.321   3.790
   1.234  -0.045   3.790
  -1.834   0.260   3.608
  -1.746  -0.050   3.608
  -1.602  -0.338   3.608
  -1.408  -0.595   3.608
  -1.170  -0.812   3.608
  -0.896  -0.982   3.608
  -0.596  -1.098   3.608
  -0.279  -1.157   3.608
   0.043  -1.157   3.608
   0.360  -1.098   3.608
   0.660  -0.982   3.608
   0.934  -0.812   3.608
   1.172  -0.595   3.608
   1.366  -0.338   3.608
   1.510  -0.050   3.608
  -2.040   0.107   3.399
  -1.939  -0.195   3.399
  -1.791  -0.477   3.399
  -1.600  -0.732   3.399
  -1.370  -0.953   3.399
  -1.108  -1.134   3.399
  -0.820  -1.270   3.399
  -0.514  -1.359   3.399
  -0.198  -1.397   3.399
   0.121  -1.384   3.399
   0.433  -1.321   3.399
   0.731  -1.208   3.399
   1.007  -1.048   3.399
   1.254  -0.847   3.399
   1.465  -0.608   3.399
   1.635  -0.339   3.399
   1.760  -0.046   3.399
  -2.255   0.105   3.165
  -2.163  -0.201   3.165
  -2.027  -0.490   3.165
  -1.851  -0.757   3.165
  -1.637  -0.995   3.165
  -1.392  -1.199   3.165
  -1.119  -1.366   3.165
  -0.825  -1.491   3.165
  -0.516  -1.572   3.165
  -0.198  -1.607   3.165
   0.738  -1.434   3.165
   1.022  -1.288   3.165
   1.282  -1.102   3.165
   1.512  -0.880   3.165
   1.708  -0.627   3.165
   1.864  -0.348   3.165
   1.978  -0.050   3.165
  -2.484   0.423   2.909
  -2.441   0.109   2.909
  -2.358  -0.197   2.909
  -2.234  -0.488   2.909
  -2.073  -0.761   2.909
  -1.876  -1.009   2.909
  -1.649  -1.229   2.909
  -1.394  -1.417   2.909
  -1.116  -1.570   2.909
   1.530  -1.123   2.909
   1.743  -0.888   2.909
   1.922  -0.627   2.909
   2.065  -0.345   2.909
   2.169  -0.045   2.909
   2.232   0.265   2.909
  -2.621   0.265   2.634
  -2.561  -0.046   2.634
  -2.464  -0.348   2.634
  -2.329  -0.634   2.634
  -2.159  -0.902   2.634
  -1.957  -1.146   2.634
  -1.726  -1.363   2.634
  -1.470  -1.549   2.634
   1.923  -0.902   2.634
   2.093  -0.634   2.634
   2.228  -0.348   2.634
   2.325  -0.046   2.634
   2.385   0.265   2.634
  -2.761   0.581   2.344
  -2.742   0.262   2.344
  -2.684  -0.051   2.344
  -2.589  -0.356   2.344
  -2.458  -0.647   2.344
  -2.293  -0.920   2.344
  -2.096  -1.172   2.344
  -1.871  -1.397   2.344
   2.222  -0.647   2.344
   2.353  -0.356   2.344
   2.448  -0.051   2.344
   2.506   0.262   2.344
  -2.848   0.581   2.042
  -2.829   0.264   2.042
  -2.774  -0.049   2.042
  -2.683  -0.353   2.042
  -2.557  -0.644   2.042
   2.538  -0.049   2.042
   2.593   0.264   2.042
   3.136   0.609   0.836
   3.113   0.928   0.836
   3.318   0.609   0.580
   3.297   0.925   0.580
   3.234   1.235   0.580
   3.234  -0.017   0.580
   3.297   0.293   0.580
   3.470   0.609   0.305
   3.450   0.925   0.305
   3.390   1.236   0.305
   3.293   1.538   0.305
   3.293  -0.320   0.305
   3.390  -0.018   0.305
   3.450   0.293   0.305
   3.590   0.609   0.015
   3.571   0.928   0.015
   3.513   1.241   0.015
   3.418   1.546   0.015
   3.287   1.837   0.015
   3.122   2.110   0.015
   3.287  -0.619   0.015
   3.418  -0.328   0.015
   3.513  -0.023   0.015
   3.571   0.290   0.015
   3.677   0.609  -0.287
   3.658   0.926  -0.287
   3.603   1.239  -0.287
   3.512   1.543  -0.287
   3.386   1.834  -0.287
   3.228   2.109  -0.287
   3.038   2.364  -0.287
   3.228  -0.891  -0.287
   3.386  -0.616  -0.287
   3.512  -0.325  -0.287
   3.603  -0.021  -0.287
   3.658   0.292  -0.287
   3.729   0.609  -0.596
   3.711   0.926  -0.596
   3.657   1.239  -0.596
   3.568   1.544  -0.596
   3.444   1.837  -0.596
   3.288   2.113  -0.596
   3.101   2.370  -0.596
   2.886   2.604  -0.596
   2.646   2.812  -0.596
   3.101  -1.152  -0.596
   3.288  -0.895  -0.596
   3.444  -0.619  -0.596
   3.568  -0.326  -0.596
   3.657  -0.021  -0.596
   3.711   0.292  -0.596
   3.747   0.609  -0.910
   3.729   0.923  -0.910
   3.677   1.232  -0.910
   3.590   1.534  -0.910
   3.470   1.824  -0.910
   3.318   2.099  -0.910
   3.136   2.355  -0.910
   2.927   2.589  -0.910
   2.693   2.798  -0.910
   2.437   2.980  -0.910
   2.162   3.132  -0.910
   2.927  -1.371  -0.910
   3.136  -1.137  -0.910
   3.318  -0.881  -0.910
   3.470  -0.606  -0.910
   3.590  -0.316  -0.910
   3.677  -0.014  -0.910
   3.729   0.295  -0.910
   3.729   0.609  -1.223
   3.711   0.926  -1.223
   3.657   1.239  -1.223
   3.568   1.544  -1.223
   3.444   1.837  -1.223
   3.288   2.113  -1.223
   3.101   2.370  -1.223
   2.886   2.604  -1.223
   2.646   2.812  -1.223
   2.384   2.992  -1.223
   2.103   3.140  -1.223
   1.807   3.255  -1.223
   1.500   3.336  -1.223
   1.185   3.381  -1.223
   0.868   3.390  -1.223
   0.551   3.363  -1.223
   0.240   3.300  -1.223
  -0.062   3.202  -1.223
   2.886  -1.386  -1.223
   3.101  -1.152  -1.223
   3.288  -0.895  -1.223
   3.444  -0.619  -1.223
   3.568  -0.326  -1.223
   3.657  -0.021  -1.223
   3.711   0.292  -1.223
   3.677   0.609  -1.533
   3.658   0.926  -1.533
   3.603   1.239  -1.533
   3.512   1.543  -1.533
   3.386   1.834  -1.533
   3.228   2.109  -1.533
   3.038   2.364  -1.533
   2.820   2.595  -1.533
   2.577   2.799  -1.533
   2.312   2.973  -1.533
   2.028   3.116  -1.533
   1.730   3.224  -1.533
   1.421   3.297  -1.533
   1.106   3.334  -1.533
   0.788   3.334  -1.533
   0.473   3.297  -1.533
   0.164   3.224  -1.533
   2.577  -1.581  -1.533
   2.820  -1.377  -1.533
   3.038  -1.146  -1.533
   3.228  -0.891  -1.533
   3.386  -0.616  -1.533
   3.512  -0.325  -1.533
   3.603  -0.021  -1.533
   3.658   0.292  -1.533
   3.590   0.609  -1.835
   3.571   0.928  -1.835
   3.513   1.241  -1.835
   3.418   1.546  -1.835
   3.287   1.837  -1.835
   3.122   2.110  -1.835
   2.925   2.362  -1.835
   2.700   2.587  -1.835
   2.448   2.784  -1.835
   2.175   2.949  -1.835
   1.884   3.080  -1.835
   1.579   3.175  -1.835
   1.266   3.233  -1.835
   0.947   3.252  -1.835
   0.628   3.233  -1.835
   0.315   3.175  -1.835
   2.175  -1.731  -1.835
   2.448  -1.566  -1.835
   2.700  -1.369  -1.835
   2.925  -1.144  -1.835
   3.122  -0.892  -1.835
   3.287  -0.619  -1.835
   3.418  -0.328  -1.835
   3.513  -0.023  -1.835
   3.571   0.290  -1.835
   3.470   0.609  -2.125
   3.450   0.925  -2.125
   3.390   1.236  -2.125
   3.293   1.538  -2.125
   3.158   1.824  -2.125
   2.988   2.092  -2.125
   2.786   2.336  -2.125
   2.555   2.553  -2.125
   2.299   2.739  -2.125
   2.021   2.892  -2.125
   1.727   3.008  -2.125
   1.420   3.087  -2.125
   1.105   3.127  -2.125
   0.789   3.127  -2.125
   0.474   3.087  -2.125
   2.021  -1.674  -2.125
   2.299  -1.521  -2.125
   2.555  -1.335  -2.125
   2.786  -1.118  -2.125
   2.988  -0.874  -2.125
   3.158  -0.606  -2.125
   3.293  -0.320  -2.125
   3.390  -0.018  -2.125
   3.450   0.293  -2.125
   3.318   0.609  -2.400
   3.297   0.925  -2.400
   3.234   1.235  -2.400
   3.130   1.535  -2.400
   2.987   1.817  -2.400
   2.808   2.078  -2.400
   2.595   2.313  -2.400
   2.353   2.518  -2.400
   2.086   2.688  -2.400
   1.799   2.821  -2.400
   1.497   2.915  -2.400
   1.184   2.968  -2.400
   0.868   2.979  -2.400
   0.553   2.947  -2.400
   1.497  -1.697  -2.400
   1.799  -1.603  -2.400
   2.086  -1.470  -2.400
   2.353  -1.300  -2.400
   2.595  -1.095  -2.400
   2.808  -0.860  -2.400
   2.987  -0.599  -2.400
   3.130  -0.317  -2.400
   3.234  -0.017  -2.400
   3.297   0.293  -2.400
   3.136   0.609  -2.656
   3.113   0.928  -2.656
   3.043   1.240  -2.656
   2.929   1.538  -2.656
   2.773   1.817  -2.656
   2.577   2.070  -2.656
   2.347   2.292  -2.656
   2.087   2.478  -2.656
   1.803   2.624  -2.656
   1.501   2.727  -2.656
   1.186   2.785  -2.656
   0.867   2.797  -2.656
   0.549   2.762  -2.656
   1.186  -1.567  -2.656
   1.501  -1.509  -2.656
   1.803  -1.406  -2.656
   2.087  -1.260  -2.656
   2.347  -1.074  -2.656
   2.577  -0.852  -2.656
   2.773  -0.599  -2.656
   2.929  -0.320  -2.656
   3.043  -0.022  -2.656
   3.113   0.290  -2.656
   2.927   0.609  -2.890
   2.901   0.927  -2.890
   2.825   1.236  -2.890
   2.700   1.529  -2.890
   2.530   1.798  -2.890
   2.319   2.037  -2.890
   2.072   2.238  -2.890
   1.796   2.398  -2.890
   1.498   2.511  -2.890
   1.186   2.574  -2.890
   0.867   2.587  -2.890
   0.551   2.549  -2.890
   0.867  -1.369  -2.890
   1.186  -1.356  -2.890
   1.498  -1.293  -2.890
   1.796  -1.180  -2.890
   2.072  -1.020  -2.890
   2.319  -0.819  -2.890
   2.530  -0.580  -2.890
   2.700  -0.311  -2.890
   2.825  -0.018  -2.890
   2.901   0.291  -2.890
   2.693   0.609  -3.099
   2.663   0.930  -3.099
   2.575   1.240  -3.099
   2.431   1.528  -3.099
   2.237   1.785  -3.099
   1.999   2.002  -3.099
   1.725   2.172  -3.099
   1.425   2.288  -3.099
   1.108   2.347  -3.099
   0.786   2.347  -3.099
   0.786  -1.129  -3.099
   1.108  -1.129  -3.099
   1.425  -1.070  -3.099
   1.725  -0.954  -3.099
   1.999  -0.784  -3.099
   2.237  -0.567  -3.099
   2.431  -0.310  -3.099
   2.575  -0.022  -3.099
   2.663   0.288  -3.099
   2.437   0.609  -3.281
   2.402   0.929  -3.281
   2.299   1.235  -3.281
   2.133   1.511  -3.281
   1.911   1.744  -3.281
   1.645   1.925  -3.281
   1.346   2.044  -3.281
   1.028   2.097  -3.281
   0.706   2.079  -3.281
   0.396  -0.775  -3.281
   0.706  -0.861  -3.281
   1.028  -0.879  -3.281
   1.346  -0.826  -3.281
   1.645  -0.707  -3.281
   1.911  -0.526  -3.281
   2.133  -0.293  -3.281
   2.299  -0.017  -3.281
   2.402   0.289  -3.281
   2.162   0.609  -3.433
   2.120   0.923  -3.433
   1.999   1.216  -3.433
   1.806   1.468  -3.433
   1.554   1.661  -3.433
   1.261   1.782  -3.433
   0.947   1.824  -3.433
   0.340  -0.443  -3.433
   0.633  -0.564  -3.433
   0.947  -0.606  -3.433
   1.261  -0.564  -3.433
   1.554  -0.443  -3.433
   1.806  -0.250  -3.433
   1.999   0.002  -3.433
   2.120   0.295  -3.433
   1.872   0.609  -3.553
   1.816   0.925  -3.553
   1.655   1.203  -3.553
   1.409   1.410  -3.553
   1.108   1.520  -3.553
   0.786   1.520  -3.553
   0.485  -0.192  -3.553
   0.786  -0.302  -3.553
   1.108  -0.302  -3.553
   1.409  -0.192  -3.553
   1.655   0.015  -3.553
   1.816   0.293  -3.553
   1.570   0.609  -3.640
   1.487   0.921  -3.640
   1.259   1.149  -3.640
   0.947   1.232  -3.640
   0.635   0.069  -3.640
   0.947  -0.014  -3.640
   1.259   0.069  -3.640
   1.487   0.297  -3.640
   1.261   0.609  -3.692
   1.104   0.881  -3.692
   0.790   0.881  -3.692
   0.633   0.609  -3.692
   0.790   0.337  -3.692
   1.104   0.337  -3.692
   0.947   0.609  -3.710
   0.111  -1.752   3.163
   0.433  -1.752   3.163
   0.911  -1.474   3.109
  -0.281  -1.793   3.109
  -0.047  -2.027   3.109
   0.272  -2.113   3.109
   0.591  -2.027   3.109
   0.825  -1.793   3.109
   1.220  -1.474   3.020
  -0.619  -1.798   3.020
  -0.454  -2.083   3.020
  -0.202  -2.295   3.020
   0.107  -2.407   3.020
   0.437  -2.408   3.020
   0.746  -2.295   3.020
   0.998  -2.083   3.020
   1.163  -1.798   3.020
   1.517  -1.474   2.897
  -0.931  -1.796   2.897
  -0.806  -2.097   2.897
  -0.609  -2.355   2.897
  -0.351  -2.552   2.897
  -0.050  -2.677   2.897
   0.272  -2.719   2.897
   0.594  -2.677   2.897
   0.895  -2.552   2.897
   1.153  -2.355   2.897
   1.350  -2.097   2.897
   1.475  -1.796   2.897
   1.799  -1.474   2.741
   1.763  -1.146   2.741
  -1.246  -1.639   2.741
  -1.175  -1.962   2.741
  -1.036  -2.261   2.741
  -0.837  -2.524   2.741
  -0.585  -2.738   2.741
  -0.293  -2.892   2.741
   0.025  -2.981   2.741
   0.355  -2.999   2.741
   0.680  -2.945   2.741
   0.987  -2.823   2.741
   1.261  -2.638   2.741
   1.488  -2.398   2.741
   1.658  -2.115   2.741
   1.763  -1.802   2.741
   2.061  -1.474   2.555
   2.031  -1.145   2.555
  -1.487  -1.803   2.555
  -1.397  -2.120   2.555
  -1.249  -2.416   2.555
  -1.050  -2.680   2.555
  -0.806  -2.902   2.555
  -0.526  -3.076   2.555
  -0.218  -3.195   2.555
   0.107  -3.256   2.555
   0.437  -3.256   2.555
   0.762  -3.195   2.555
   1.070  -3.076   2.555
   1.350  -2.902   2.555
   1.594  -2.680   2.555
   1.793  -2.416   2.555
   1.941  -2.120   2.555
   2.031  -1.803   2.555
   2.301  -1.474   2.340
   2.275  -1.148   2.340
   2.197  -0.831   2.340
  -1.751  -1.637   2.340
  -1.698  -1.960   2.340
  -1.595  -2.269   2.340
  -1.443  -2.559   2.340
  -1.247  -2.820   2.340
  -1.011  -3.046   2.340
  -0.743  -3.232   2.340
  -0.448  -3.372   2.340
  -0.134  -3.462   2.340
   0.190  -3.502   2.340
   0.517  -3.489   2.340
   0.837  -3.423   2.340
   1.142  -3.307   2.340
   1.425  -3.144   2.340
   1.678  -2.938   2.340
   1.894  -2.693   2.340
   2.069  -2.417   2.340
   2.197  -2.117   2.340
   2.275  -1.800   2.340
   2.516  -1.474   2.100
   2.492  -1.147   2.100
   2.421  -0.828   2.100
  -1.966  -1.638   2.100
  -1.918  -1.962   2.100
  -1.824  -2.276   2.100
  -1.685  -2.572   2.100
  -1.504  -2.845   2.100
  -1.285  -3.089   2.100
  -1.034  -3.299   2.100
  -0.754  -3.470   2.100
  -0.453  -3.598   2.100
  -0.136  -3.681   2.100
   0.190  -3.716   2.100
   0.517  -3.704   2.100
   0.840  -3.645   2.100
   1.150  -3.539   2.100
   1.441  -3.389   2.100
   1.707  -3.199   2.100
   1.943  -2.971   2.100
   2.143  -2.712   2.100
   2.304  -2.426   2.100
   2.421  -2.120   2.100
   2.492  -1.801   2.100
   2.702  -1.474   1.838
   2.680  -1.150   1.838
   2.616  -0.832   1.838
  -2.109  -1.958   1.838
  -2.024  -2.271   1.838
  -1.897  -2.570   1.838
  -1.731  -2.849   1.838
  -1.530  -3.104   1.838
  -1.297  -3.330   1.838
  -1.036  -3.522   1.838
  -0.751  -3.678   1.838
  -0.448  -3.795   1.838
  -0.132  -3.870   1.838
   0.191  -3.903   1.838
   0.515  -3.892   1.838
   0.835  -3.838   1.838
   1.145  -3.742   1.838
   1.440  -3.605   1.838
   1.713  -3.430   1.838
   1.961  -3.221   1.838
   2.179  -2.980   1.838
   2.363  -2.712   1.838
   2.509  -2.423   1.838
   2.616  -2.116   1.838
   2.680  -1.798   1.838
   2.858  -1.474   1.556
   2.837  -1.150   1.556
   2.777  -0.831   1.556
  -2.233  -2.117   1.556
  -2.132  -2.426   1.556
  -1.994  -2.720   1.556
  -1.820  -2.994   1.556
  -1.613  -3.244   1.556
  -1.376  -3.466   1.556
  -1.114  -3.657   1.556
  -0.829  -3.814   1.556
  -0.527  -3.933   1.556
  -0.213  -4.014   1.556
   0.110  -4.055   1.556
   0.434  -4.055   1.556
   0.757  -4.014   1.556
   1.071  -3.933   1.556
   1.373  -3.814   1.556
   1.658  -3.657   1.556
   1.920  -3.466   1.556
   2.157  -3.244   1.556
   2.364  -2.994   1.556
   2.538  -2.720   1.556
   2.676  -2.426   1.556
   2.777  -2.117   1.556
   2.837  -1.798   1.556
   2.981  -1.474   1.259
   2.961  -1.147   1.259
   2.902  -0.826   1.259
  -2.358  -2.122   1.259
  -2.261  -2.435   1.259
  -2.127  -2.733   1.259
  -1.957  -3.013   1.259
  -1.756  -3.270   1.259
  -1.524  -3.502   1.259
  -1.267  -3.703   1.259
  -0.987  -3.873   1.259
  -0.689  -4.007   1.259
  -0.376  -4.104   1.259
  -0.055  -4.163   1.259
   0.272  -4.183   1.259
   0.599  -4.163   1.259
   0.920  -4.104   1.259
   1.233  -4.007   1.259
   1.531  -3.873   1.259
   1.811  -3.703   1.259
   2.068  -3.502   1.259
   2.300  -3.270   1.259
   2.501  -3.013   1.259
   2.671  -2.733   1.259
   2.805  -2.435   1.259
   2.902  -2.122   1.259
   2.961  -1.801   1.259
   3.070  -1.474   0.950
   3.051  -1.149   0.950
  -2.357  -2.431   0.950
  -2.228  -2.730   0.950
  -2.066  -3.012   0.950
  -1.871  -3.273   0.950
  -1.648  -3.509   0.950
  -1.399  -3.718   0.950
  -1.127  -3.897   0.950
  -0.836  -4.043   0.950
  -0.530  -4.154   0.950
  -0.214  -4.230   0.950
   0.109  -4.267   0.950
   0.435  -4.267   0.950
   0.758  -4.230   0.950
   1.074  -4.154   0.950
   1.380  -4.043   0.950
   1.671  -3.897   0.950
   1.943  -3.718   0.950
   2.192  -3.509   0.950
   2.415  -3.273   0.950
   2.610  -3.012   0.950
   2.772  -2.730   0.950
   2.901  -2.431   0.950
   2.995  -2.119   0.950
   3.051  -1.799   0.950
   3.124  -1.474   0.632
   3.105  -1.149   0.632
  -2.355  -2.584   0.632
  -2.211  -2.876   0.632
  -2.035  -3.150   0.632
  -1.829  -3.402   0.632
  -1.596  -3.629   0.632
  -1.338  -3.828   0.632
  -1.059  -3.996   0.632
  -0.763  -4.132   0.632
  -0.453  -4.232   0.632
  -0.134  -4.297   0.632
   0.191  -4.325   0.632
   0.516  -4.315   0.632
   0.838  -4.269   0.632
   1.153  -4.186   0.632
   1.457  -4.068   0.632
   1.745  -3.916   0.632
   2.014  -3.732   0.632
   2.260  -3.519   0.632
   2.480  -3.279   0.632
   2.671  -3.016   0.632
   2.831  -2.732   0.632
   2.958  -2.432   0.632
   3.050  -2.120   0.632
   3.105  -1.799   0.632
   3.142  -1.474   0.311
   3.124  -1.153   0.311
  -2.314  -2.719   0.311
  -2.158  -3.001   0.311
  -1.972  -3.263   0.311
  -1.757  -3.503   0.311
  -1.517  -3.718   0.311
  -1.255  -3.904   0.311
  -0.973  -4.060   0.311
  -0.676  -4.183   0.311
  -0.367  -4.272   0.311
  -0.049  -4.326   0.311
   0.272  -4.344   0.311
   0.593  -4.326   0.311
   0.911  -4.272   0.311
   1.220  -4.183   0.311
   1.517  -4.060   0.311
   1.799  -3.904   0.311
   2.061  -3.718   0.311
   2.301  -3.503   0.311
   2.516  -3.263   0.311
   2.702  -3.001   0.311
   2.858  -2.719   0.311
   2.981  -2.422   0.311
   3.070  -2.113   0.311
   3.124  -1.795   0.311
   3.124  -1.474  -0.010
   3.105  -1.149  -0.010
  -2.211  -2.876  -0.010
  -2.035  -3.150  -0.010
  -1.829  -3.402  -0.010
  -1.596  -3.629  -0.010
  -1.338  -3.828  -0.010
  -1.059  -3.996  -0.010
  -0.763  -4.132  -0.010
  -0.453  -4.232  -0.010
  -0.134  -4.297  -0.010
   0.191  -4.325  -0.010
   0.516  -4.315  -0.010
   0.838  -4.269  -0.010
   1.153  -4.186  -0.010
   1.457  -4.068  -0.010
   1.745  -3.916  -0.010
   2.014  -3.732  -0.010
   2.260  -3.519  -0.010
   2.480  -3.279  -0.010
   2.671  -3.016  -0.010
   2.831  -2.732  -0.010
   2.958  -2.432  -0.010
   3.050  -2.120  -0.010
   3.105  -1.799  -0.010
   3.070  -1.474  -0.328
   3.051  -1.149  -0.328
  -2.066  -3.012  -0.328
  -1.871  -3.273  -0.328
  -1.648  -3.509  -0.328
  -1.399  -3.718  -0.328
  -1.127  -3.897  -0.328
  -0.836  -4.043  -0.328
  -0.530  -4.154  -0.328
  -0.214  -4.230  -0.328
   0.109  -4.267  -0.328
   0.435  -4.267  -0.328
   0.758  -4.230  -0.328
   1.074  -4.155  -0.328
   1.380  -4.043  -0.328
   1.671  -3.897  -0.328
   1.943  -3.718  -0.328
   2.192  -3.509  -0.328
   2.415  -3.273  -0.328
   2.610  -3.012  -0.328
   2.772  -2.730  -0.328
   2.901  -2.431  -0.328
   2.995  -2.119  -0.328
   3.051  -1.799  -0.328
   2.981  -1.474  -0.637
  -1.957  -3.013  -0.637
  -1.756  -3.270  -0.637
  -1.524  -3.502  -0.637
  -1.267  -3.703  -0.637
  -0.987  -3.873  -0.637
  -0.689  -4.007  -0.637
  -0.376  -4.104  -0.637
  -0.055  -4.163  -0.637
   0.272  -4.183  -0.637
   0.599  -4.163  -0.637
   0.920  -4.104  -0.637
   1.233  -4.007  -0.637
   1.531  -3.873  -0.637
   1.811  -3.703  -0.637
   2.068  -3.502  -0.637
   2.300  -3.270  -0.637
   2.501  -3.013  -0.637
   2.671  -2.733  -0.637
   2.805  -2.435  -0.637
   2.902  -2.122  -0.637
   2.961  -1.801  -0.637
   2.858  -1.474  -0.934
  -1.820  -2.994  -0.934
  -1.613  -3.244  -0.934
  -1.376  -3.466  -0.934
  -1.114  -3.657  -0.934
  -0.829  -3.814  -0.934
  -0.527  -3.933  -0.934
  -0.213  -4.014  -0.934
   0.110  -4.055  -0.934
   0.434  -4.055  -0.934
   0.757  -4.014  -0.934
   1.071  -3.933  -0.934
   1.373  -3.814  -0.934
   1.658  -3.657  -0.934
   1.920  -3.466  -0.934
   2.157  -3.244  -0.934
   2.364  -2.994  -0.934
   2.538  -2.720  -0.934
   2.676  -2.426  -0.934
   2.777  -2.117  -0.934
   2.837  -1.798  -0.934
  -1.530  -3.104  -1.216
  -1.297  -3.330  -1.216
  -1.036  -3.522  -1.216
  -0.751  -3.678  -1.216
  -0.448  -3.795  -1.216
  -0.132  -3.870  -1.216
   0.191  -3.903  -1.216
   0.515  -3.892  -1.216
   0.835  -3.838  -1.216
   1.145  -3.742  -1.216
   1.440  -3.605  -1.216
   1.713  -3.430  -1.216
   1.961  -3.221  -1.216
   2.179  -2.980  -1.216
   2.363  -2.712  -1.216
   2.509  -2.423  -1.216
   2.616  -2.116  -1.216
   2.680  -1.798  -1.216
  -1.504  -2.845  -1.478
  -1.285  -3.089  -1.478
  -1.034  -3.299  -1.478
  -0.754  -3.470  -1.478
  -0.453  -3.598  -1.478
  -0.136  -3.681  -1.478
   0.190  -3.716  -1.478
   0.517  -3.704  -1.478
   0.840  -3.645  -1.478
   1.150  -3.539  -1.478
   1.441  -3.389  -1.478
   1.707  -3.199  -1.478
   1.943  -2.971  -1.478
   2.143  -2.712  -1.478
   2.304  -2.426  -1.478
   2.421  -2.120  -1.478
   2.492  -1.801  -1.478
  -1.247  -2.820  -1.718
  -1.011  -3.046  -1.718
  -0.743  -3.232  -1.718
  -0.448  -3.372  -1.718
  -0.134  -3.462  -1.718
   0.190  -3.502  -1.718
   0.517  -3.489  -1.718
   0.837  -3.423  -1.718
   1.142  -3.307  -1.718
   1.425  -3.144  -1.718
   1.678  -2.938  -1.718
   1.894  -2.693  -1.718
   2.069  -2.417  -1.718
   2.197  -2.117  -1.718
   2.275  -1.800  -1.718
  -1.050  -2.680  -1.933
  -0.806  -2.902  -1.933
  -0.526  -3.076  -1.933
  -0.218  -3.195  -1.933
   0.107  -3.256  -1.933
   0.437  -3.256  -1.933
   0.762  -3.195  -1.933
   1.070  -3.076  -1.933
   1.350  -2.902  -1.933
   1.594  -2.680  -1.933
   1.793  -2.416  -1.933
   1.941  -2.120  -1.933
   2.031  -1.803  -1.933
  -0.837  -2.524  -2.119
  -0.585  -2.738  -2.119
  -0.293  -2.892  -2.119
   0.025  -2.981  -2.119
   0.355  -2.999  -2.119
   0.680  -2.945  -2.119
   0.987  -2.823  -2.119
   1.261  -2.638  -2.119
   1.488  -2.398  -2.119
   1.658  -2.115  -2.119
   1.763  -1.802  -2.119
  -0.609  -2.355  -2.275
  -0.351  -2.552  -2.275
  -0.050  -2.677  -2.275
   0.272  -2.719  -2.275
   0.594  -2.677  -2.275
   0.895  -2.552  -2.275
   1.153  -2.355  -2.275
   1.350  -2.097  -2.275
  -0.202  -2.295  -2.398
   0.107  -2.408  -2.398
   0.437  -2.408  -2.398
   0.746  -2.295  -2.398
   0.998  -2.083  -2.398
  -2.888   0.314   1.772
  -2.957  -0.001   1.772
  -2.957  -0.323   1.772
  -2.888  -0.638   1.772
  -2.752  -0.930   1.772
  -2.558  -1.186   1.772
  -3.104   0.469   1.590
  -3.192   0.159   1.590
  -3.222  -0.162   1.590
  -3.192  -0.483   1.590
  -3.104  -0.793   1.590
  -2.960  -1.081   1.590
  -2.766  -1.338   1.590
  -2.528  -1.555   1.590
  -3.449  -0.003   1.381
  -3.449  -0.321   1.381
  -3.398  -0.636   1.381
  -3.297  -0.938   1.381
  -3.149  -1.220   1.381
  -2.958  -1.475   1.381
  -2.728  -1.696   1.381
  -2.466  -1.877   1.381
  -3.659  -0.322   1.147
  -3.613  -0.638   1.147
  -3.521  -0.944   1.147
  -3.385  -1.233   1.147
  -3.209  -1.500   1.147
  -2.995  -1.738   1.147
  -2.750  -1.942   1.147
  -2.477  -2.109   1.147
  -3.799  -0.634   0.891
  -3.716  -0.940   0.891
  -3.592  -1.231   0.891
  -3.431  -1.504   0.891
  -3.234  -1.752   0.891
  -3.007  -1.972   0.891
  -2.752  -2.160   0.891
  -2.474  -2.313   0.891
  -3.919  -0.789   0.616
  -3.822  -1.091   0.616
  -3.687  -1.377   0.616
  -3.517  -1.645   0.616
  -3.315  -1.889   0.616
  -3.084  -2.106   0.616
  -2.828  -2.292   0.616
  -2.550  -2.445   0.616
  -3.947  -1.099   0.326
  -3.816  -1.390   0.326
  -3.651  -1.663   0.326
  -3.454  -1.915   0.326
  -3.229  -2.140   0.326
  -2.977  -2.337   0.326
  -2.704  -2.502   0.326
  -2.413  -2.633   0.326
  -3.915  -1.387   0.024
  -3.757  -1.662   0.024
  -3.567  -1.917   0.024
  -3.349  -2.148   0.024
  -3.106  -2.352   0.024
  -2.841  -2.526   0.024
  -2.557  -2.669   0.024
  -3.727  -1.797  -0.285
  -3.526  -2.043  -0.285
  -3.298  -2.265  -0.285
  -3.047  -2.459  -0.285
  -2.774  -2.623  -0.285
  -2.485  -2.755  -0.285
  -2.183  -2.853  -0.285
  -3.665  -1.908  -0.599
  -3.456  -2.142  -0.599
  -3.222  -2.351  -0.599
  -2.966  -2.533  -0.599
  -2.691  -2.685  -0.599
  -2.401  -2.805  -0.599
  -2.099  -2.892  -0.599
  -3.298  -2.265  -0.912
  -3.047  -2.459  -0.912
  -2.774  -2.623  -0.912
  -2.485  -2.755  -0.912
  -2.183  -2.853  -0.912
  -3.106  -2.352  -1.222
  -2.841  -2.526  -1.222
  -2.557  -2.669  -1.222
  -2.259  -2.777  -1.222
  -1.950  -2.850  -1.222
  -2.977  -2.337  -1.524
  -2.704  -2.502  -1.524
  -2.413  -2.633  -1.524
  -2.108  -2.728  -1.524
  -1.795  -2.786  -1.524
  -2.828  -2.292  -1.814
  -2.550  -2.445  -1.814
  -2.256  -2.561  -1.814
  -1.949  -2.640  -1.814
  -1.634  -2.680  -1.814
  -1.318  -2.680  -1.814
  -2.752  -2.160  -2.089
  -2.474  -2.313  -2.089
  -2.178  -2.426  -2.089
  -1.870  -2.500  -2.089
  -1.555  -2.532  -2.089
  -1.239  -2.521  -2.089
  -2.477  -2.109  -2.345
  -2.183  -2.234  -2.345
  -1.874  -2.315  -2.345
  -1.556  -2.350  -2.345
  -1.237  -2.338  -2.345
  -0.922  -2.280  -2.345
  -2.178  -2.013  -2.579
  -1.872  -2.102  -2.579
  -1.556  -2.140  -2.579
  -1.237  -2.127  -2.579
  -0.925  -2.064  -2.579
  -1.637  -1.900  -2.788
  -1.315  -1.900  -2.788
  -0.998  -1.841  -2.788
  -0.698  -1.725  -2.788
  -1.077  -1.597  -2.970
  -0.778  -1.478  -2.970
  -3.176   0.856   1.549
  -3.497   0.856   1.416
  -3.451   0.508   1.416
  -3.792   0.678   1.248
  -3.715   0.329   1.248
  -4.085   0.856   1.047
  -4.052   0.501   1.047
  -3.954   0.158   1.047
  -3.795  -0.161   1.047
  -4.337   1.032   0.815
  -4.337   0.680   0.815
  -4.280   0.331   0.815
  -4.169  -0.003   0.815
  -4.005  -0.316   0.815
  -4.569   1.033   0.556
  -4.569   0.679   0.556
  -4.518   0.329   0.556
  -4.416  -0.010   0.556
  -4.266  -0.330   0.556
  -4.070  -0.625   0.556
  -4.724   1.379   0.272
  -4.771   1.031   0.272
  -4.771   0.681   0.272
  -4.857   1.551  -0.032
  -4.923   1.206  -0.032
  -4.993   1.556  -0.353
  -4.992   1.890  -0.687
  -4.990   2.055  -1.030
  -0.219   3.280  -1.377
  -4.777   2.505  -1.377
  -4.945   2.201  -1.377
  -0.271   3.295  -1.724
  -0.561   3.494  -1.724
  -4.644   2.667  -1.724
  -4.834   2.371  -1.724
  -0.955   3.631  -2.067
  -4.226   3.054  -2.067
  -4.467   2.799  -2.067
  -4.677   2.517  -2.067
  -1.452   3.697  -2.401
  -1.799   3.761  -2.401
  -2.152   3.782  -2.401
  -3.190   3.592  -2.401
  -3.512   3.447  -2.401
  -3.814   3.264  -2.401
  -4.092   3.046  -2.401
  -4.342   2.796  -2.401
  -4.560   2.518  -2.401
  -2.505  -2.049  -2.401
  -1.977   3.643  -2.722
  -2.327   3.643  -2.722
  -2.675   3.600  -2.722
  -3.015   3.512  -2.722
  -3.341   3.383  -2.722
  -3.649   3.214  -2.722
  -3.932   3.008  -2.722
  -4.188   2.768  -2.722
  -4.412   2.498  -2.722
  -2.327  -1.931  -2.722
  -1.977  -1.931  -2.722
  -2.240   3.479  -3.026
  -2.589   3.444  -3.026
  -2.930   3.363  -3.026
  -3.257   3.237  -3.026
  -3.564   3.068  -3.026
  -3.847   2.860  -3.026
  -4.099   2.617  -3.026
  -4.316   2.342  -3.026
  -2.240  -1.767  -3.026
  -1.889  -1.756  -3.026
  -1.544  -1.697  -3.026
  -1.209  -1.593  -3.026
  -0.891  -1.446  -3.026
  -0.595  -1.257  -3.026
  -2.592   3.239  -3.310
  -2.935   3.150  -3.310
  -3.260   3.011  -3.310
  -3.562   2.827  -3.310
  -3.834   2.601  -3.310
  -4.070   2.337  -3.310
  -4.266   2.042  -3.310
  -2.241  -1.566  -3.310
  -1.887  -1.553  -3.310
  -1.539  -1.489  -3.310
  -1.204  -1.375  -3.310
  -0.889  -1.213  -3.310
  -2.929   2.906  -3.569
  -3.248   2.754  -3.569
  -3.538   2.554  -3.569
  -3.793   2.310  -3.569
  -4.005   2.028  -3.569
  -2.240  -1.334  -3.569
  -1.888  -1.320  -3.569
  -1.542  -1.249  -3.569
  -1.212  -1.124  -3.569
  -3.014   2.586  -3.801
  -3.317   2.398  -3.801
  -3.580   2.158  -3.801
  -3.795   1.874  -3.801
  -2.330  -1.069  -3.801
  -1.974  -1.069  -3.801
  -1.623  -1.003  -3.801
  -3.349   1.990  -4.002
  -3.565   1.706  -4.002
  -2.419  -0.772  -4.002
  -2.063  -0.791  -4.002
  -3.317   1.529  -4.170
  -3.451   1.204  -4.170
  -2.500  -0.443  -4.170
  -3.176   0.856  -4.303
  -3.114   0.506  -4.303
  -2.936   0.198  -4.303
  -4.501   1.304   0.606
  -4.668   1.448   0.351
  -4.798   1.742   0.082