 $system timlim=999888777
         mwords=100 $end
 $contrl exetyp=run
         runtyp=energy scftyp=rhf
         icharg=-1 mult=1 units=angs coord=unique
         maxit=50 ispher=1 qmttol=1d-6 icut=12 itol=22 $end
 $scf    dirscf=.t. diis=.t. soscf=.f.
         fdiff=.f. conv=1d-6
         npreo(1)=0,-1,1,9999 $end
 $elpot  iepot=1 where=points $end
 $basis  gbasis=n311 ngauss=6
         ndfunc=1 npfunc=1 diffsp=.t. diffs=.t. $end
 $DATA
TS1a_hfd_irc200_all_revmov.pdb
C1
P     15.0    -0.04200   0.01500  -0.02700 
O      8.0    -0.11900   0.56300   1.42600 
O      8.0     0.94400   0.62200  -0.90400 
F      9.0     0.27800  -1.47700   0.29500 
O      8.0    -1.47600  -0.16200  -0.59900 
C      6.0    -2.15200   0.85600  -1.37700 
H      1.0    -2.32500   1.75100  -0.78300 
H      1.0    -1.55300   1.07200  -2.25100 
H      1.0    -3.08400   0.39800  -1.67300 
C      6.0    -0.05900   1.97500   1.74600 
H      1.0    -0.07100   2.00900   2.82600 
H      1.0     0.87700   2.37000   1.37400 
H      1.0    -0.90900   2.50700   1.32800 
O      8.0    -2.42500   3.34100   0.38000 
H      1.0    -2.88700   4.17000   0.39200 
 $END
 $POINTS
ANGS 3137
  -1.789  -1.532   2.306
  -2.452  -0.907   2.031
  -2.292  -1.248   2.031
  -2.084  -1.562   2.031
   2.511  -0.361   2.031
   2.752   0.015   1.729
   2.727   0.387   1.729
  -2.346  -1.566   1.729
   2.653  -0.723   1.729
   2.727  -0.357   1.729
   2.931   0.015   1.405
   2.908   0.388   1.405
   2.838  -0.724   1.405
   2.908  -0.358   1.405
   3.073   0.015   1.063
   3.050   0.390   1.063
   2.982   0.760   1.063
   2.982  -0.730   1.063
   3.050  -0.360   1.063
   3.175   0.015   0.707
   3.089  -0.727   0.707
   3.154  -0.359   0.707
   3.152  -0.728   0.342
  -0.509  -2.271  -2.360
   1.284  -1.905  -2.360
  -0.605  -1.964  -2.607
  -0.232  -2.034  -2.607
   0.148  -2.034  -2.607
   0.521  -1.964  -2.607
   0.875  -1.827  -2.607
   1.198  -1.627  -2.607
  -0.326  -1.718  -2.821
   0.053  -1.738  -2.821
   0.428  -1.677  -2.821
   0.780  -1.536  -2.821
  -0.413  -1.368  -3.000
  -0.042  -1.417  -3.000
   0.329  -1.368  -3.000
   0.674  -1.225  -3.000
  -0.231  -1.058  -3.142
   0.147  -1.058  -3.142
  -0.581  -0.238   4.069
  -0.280  -0.348   4.069
   0.042  -0.348   4.069
   0.343  -0.238   4.069
  -0.978  -0.296   3.949
  -0.726  -0.489   3.949
  -0.433  -0.610   3.949
  -0.119  -0.652   3.949
   0.195  -0.610   3.949
   0.488  -0.489   3.949
   0.740  -0.296   3.949
  -1.531   0.087   3.797
  -1.395  -0.205   3.797
  -1.201  -0.461   3.797
  -0.955  -0.670   3.797
  -0.670  -0.821   3.797
  -0.360  -0.907   3.797
  -0.038  -0.925   3.797
   0.280  -0.872   3.797
   0.579  -0.753   3.797
   0.845  -0.572   3.797
   1.067  -0.339   3.797
   1.233  -0.063   3.797
  -1.835   0.242   3.615
  -1.747  -0.068   3.615
  -1.603  -0.356   3.615
  -1.409  -0.613   3.615
  -1.171  -0.830   3.615
  -0.897  -1.000   3.615
  -0.597  -1.116   3.615
  -0.280  -1.175   3.615
   0.042  -1.175   3.615
   0.359  -1.116   3.615
   0.659  -1.000   3.615
   0.933  -0.830   3.615
   1.171  -0.613   3.615
   1.365  -0.356   3.615
   1.509  -0.068   3.615
  -2.041   0.089   3.406
  -1.940  -0.213   3.406
  -1.792  -0.495   3.406
  -1.601  -0.750   3.406
  -1.371  -0.971   3.406
  -1.109  -1.152   3.406
  -0.821  -1.288   3.406
  -0.515  -1.377   3.406
  -0.199  -1.415   3.406
   0.120  -1.402   3.406
   0.432  -1.339   3.406
   0.730  -1.226   3.406
   1.006  -1.066   3.406
   1.253  -0.865   3.406
   1.464  -0.626   3.406
   1.634  -0.357   3.406
   1.759  -0.064   3.406
  -2.256   0.087   3.172
  -2.164  -0.219   3.172
  -2.028  -0.508   3.172
  -1.852  -0.775   3.172
  -1.638  -1.013   3.172
  -1.393  -1.217   3.172
  -1.120  -1.384   3.172
  -0.826  -1.509   3.172
  -0.517  -1.590   3.172
  -0.199  -1.625   3.172
   0.120  -1.613   3.172
   0.435  -1.555   3.172
   0.737  -1.452   3.172
   1.021  -1.306   3.172
   1.281  -1.120   3.172
   1.511  -0.898   3.172
   1.707  -0.645   3.172
   1.863  -0.366   3.172
   1.977  -0.068   3.172
  -2.485   0.405   2.916
  -2.442   0.091   2.916
  -2.359  -0.215   2.916
  -2.235  -0.506   2.916
  -2.074  -0.779   2.916
  -1.877  -1.027   2.916
  -1.650  -1.247   2.916
  -1.395  -1.435   2.916
  -1.117  -1.588   2.916
   1.529  -1.141   2.916
   1.742  -0.906   2.916
   1.921  -0.645   2.916
   2.064  -0.363   2.916
   2.168  -0.063   2.916
  -2.622   0.247   2.641
  -2.562  -0.064   2.641
  -2.465  -0.366   2.641
  -2.330  -0.652   2.641
  -2.160  -0.920   2.641
  -1.958  -1.164   2.641
  -1.727  -1.381   2.641
  -1.471  -1.567   2.641
   1.922  -0.920   2.641
   2.092  -0.652   2.641
   2.227  -0.366   2.641
   2.324  -0.064   2.641
   2.384   0.247   2.641
  -2.762   0.563   2.351
  -2.743   0.244   2.351
  -2.685  -0.069   2.351
  -2.590  -0.374   2.351
  -2.459  -0.665   2.351
  -2.294  -0.938   2.351
  -2.097  -1.190   2.351
  -1.872  -1.415   2.351
   2.221  -0.665   2.351
   2.352  -0.374   2.351
   2.447  -0.069   2.351
   2.505   0.244   2.351
  -2.849   0.563   2.049
  -2.830   0.246   2.049
  -2.775  -0.067   2.049
  -2.684  -0.371   2.049
  -2.558  -0.662   2.049
   2.537  -0.067   2.049
   2.592   0.246   2.049
  -2.897   0.722   1.740
   3.133   0.622   0.842
   3.110   0.941   0.842
   3.315   0.622   0.586
   3.294   0.938   0.586
   3.231   1.248   0.586
   3.231  -0.004   0.586
   3.294   0.306   0.586
   3.467   0.622   0.311
   3.447   0.938   0.311
   3.387   1.249   0.311
   3.290   1.551   0.311
   3.290  -0.307   0.311
   3.387  -0.005   0.311
   3.447   0.306   0.311
   3.587   0.622   0.021
   3.568   0.941   0.021
   3.510   1.254   0.021
   3.415   1.559   0.021
   3.284   1.850   0.021
   3.119   2.123   0.021
   3.284  -0.606   0.021
   3.415  -0.315   0.021
   3.510  -0.010   0.021
   3.568   0.303   0.021
   3.674   0.622  -0.281
   3.655   0.939  -0.281
   3.600   1.252  -0.281
   3.509   1.556  -0.281
   3.383   1.847  -0.281
   3.225   2.122  -0.281
   3.035   2.377  -0.281
   3.225  -0.878  -0.281
   3.383  -0.603  -0.281
   3.509  -0.312  -0.281
   3.600  -0.008  -0.281
   3.655   0.305  -0.281
   3.726   0.622  -0.590
   3.708   0.939  -0.590
   3.654   1.252  -0.590
   3.565   1.557  -0.590
   3.441   1.850  -0.590
   3.285   2.126  -0.590
   3.098   2.383  -0.590
   2.883   2.617  -0.590
   2.643   2.825  -0.590
   3.098  -1.139  -0.590
   3.285  -0.882  -0.590
   3.441  -0.606  -0.590
   3.565  -0.313  -0.590
   3.654  -0.008  -0.590
   3.708   0.305  -0.590
   3.744   0.622  -0.904
   3.726   0.936  -0.904
   3.674   1.245  -0.904
   3.587   1.547  -0.904
   3.467   1.837  -0.904
   3.315   2.112  -0.904
   3.133   2.368  -0.904
   2.924   2.602  -0.904
   2.690   2.811  -0.904
   2.434   2.993  -0.904
   2.159   3.145  -0.904
   1.869   3.265  -0.904
   2.924  -1.358  -0.904
   3.133  -1.124  -0.904
   3.315  -0.868  -0.904
   3.467  -0.593  -0.904
   3.587  -0.303  -0.904
   3.674  -0.001  -0.904
   3.726   0.308  -0.904
   3.726   0.622  -1.217
   3.708   0.939  -1.217
   3.654   1.252  -1.217
   3.565   1.557  -1.217
   3.441   1.850  -1.217
   3.285   2.126  -1.217
   3.098   2.383  -1.217
   2.883   2.617  -1.217
   2.643   2.825  -1.217
   2.381   3.005  -1.217
   2.100   3.153  -1.217
   1.804   3.268  -1.217
   1.497   3.349  -1.217
   1.182   3.394  -1.217
   0.865   3.403  -1.217
   0.548   3.376  -1.217
   0.237   3.313  -1.217
  -0.065   3.215  -1.217
   2.883  -1.373  -1.217
   3.098  -1.139  -1.217
   3.285  -0.882  -1.217
   3.441  -0.606  -1.217
   3.565  -0.313  -1.217
   3.654  -0.008  -1.217
   3.708   0.305  -1.217
   3.674   0.622  -1.527
   3.655   0.939  -1.527
   3.600   1.252  -1.527
   3.509   1.556  -1.527
   3.383   1.847  -1.527
   3.225   2.122  -1.527
   3.035   2.377  -1.527
   2.817   2.608  -1.527
   2.574   2.812  -1.527
   2.309   2.986  -1.527
   2.025   3.129  -1.527
   1.727   3.237  -1.527
   1.418   3.310  -1.527
   1.103   3.347  -1.527
   0.785   3.347  -1.527
   0.470   3.310  -1.527
   0.161   3.237  -1.527
   2.574  -1.568  -1.527
   2.817  -1.364  -1.527
   3.035  -1.133  -1.527
   3.225  -0.878  -1.527
   3.383  -0.603  -1.527
   3.509  -0.312  -1.527
   3.600  -0.008  -1.527
   3.655   0.305  -1.527
   3.587   0.622  -1.829
   3.568   0.941  -1.829
   3.510   1.254  -1.829
   3.415   1.559  -1.829
   3.284   1.850  -1.829
   3.119   2.123  -1.829
   2.922   2.375  -1.829
   2.697   2.600  -1.829
   2.445   2.797  -1.829
   2.172   2.962  -1.829
   1.881   3.093  -1.829
   1.576   3.188  -1.829
   1.263   3.246  -1.829
   0.944   3.265  -1.829
   0.625   3.246  -1.829
   0.312   3.188  -1.829
   2.445  -1.553  -1.829
   2.697  -1.356  -1.829
   2.922  -1.131  -1.829
   3.119  -0.879  -1.829
   3.284  -0.606  -1.829
   3.415  -0.315  -1.829
   3.510  -0.010  -1.829
   3.568   0.303  -1.829
   3.467   0.622  -2.119
   3.447   0.938  -2.119
   3.387   1.249  -2.119
   3.290   1.551  -2.119
   3.155   1.837  -2.119
   2.985   2.105  -2.119
   2.783   2.349  -2.119
   2.552   2.566  -2.119
   2.296   2.752  -2.119
   2.018   2.905  -2.119
   1.724   3.021  -2.119
   1.417   3.100  -2.119
   1.102   3.140  -2.119
   0.786   3.140  -2.119
   0.471   3.100  -2.119
   0.164   3.021  -2.119
   2.018  -1.661  -2.119
   2.296  -1.508  -2.119
   2.552  -1.322  -2.119
   2.783  -1.105  -2.119
   2.985  -0.861  -2.119
   3.155  -0.593  -2.119
   3.290  -0.307  -2.119
   3.387  -0.005  -2.119
   3.447   0.306  -2.119
   3.315   0.622  -2.394
   3.294   0.938  -2.394
   3.231   1.248  -2.394
   3.127   1.548  -2.394
   2.984   1.830  -2.394
   2.805   2.091  -2.394
   2.592   2.326  -2.394
   2.350   2.531  -2.394
   2.083   2.701  -2.394
   1.796   2.834  -2.394
   1.494   2.928  -2.394
   1.181   2.981  -2.394
   0.865   2.992  -2.394
   0.550   2.960  -2.394
   1.796  -1.590  -2.394
   2.083  -1.457  -2.394
   2.350  -1.287  -2.394
   2.592  -1.082  -2.394
   2.805  -0.847  -2.394
   2.984  -0.586  -2.394
   3.127  -0.304  -2.394
   3.231  -0.004  -2.394
   3.294   0.306  -2.394
   3.133   0.622  -2.650
   3.110   0.941  -2.650
   3.040   1.253  -2.650
   2.926   1.551  -2.650
   2.770   1.830  -2.650
   2.574   2.083  -2.650
   2.344   2.305  -2.650
   2.084   2.491  -2.650
   1.800   2.637  -2.650
   1.498   2.740  -2.650
   1.183   2.798  -2.650
   0.864   2.810  -2.650
   0.546   2.775  -2.650
   1.498  -1.496  -2.650
   1.800  -1.393  -2.650
   2.084  -1.247  -2.650
   2.344  -1.061  -2.650
   2.574  -0.839  -2.650
   2.770  -0.586  -2.650
   2.926  -0.307  -2.650
   3.040  -0.009  -2.650
   3.110   0.303  -2.650
   2.924   0.622  -2.884
   2.898   0.940  -2.884
   2.822   1.249  -2.884
   2.697   1.542  -2.884
   2.527   1.811  -2.884
   2.316   2.050  -2.884
   2.069   2.251  -2.884
   1.793   2.411  -2.884
   1.495   2.524  -2.884
   1.183   2.587  -2.884
   0.864   2.600  -2.884
   0.548   2.562  -2.884
   1.183  -1.343  -2.884
   1.495  -1.280  -2.884
   1.793  -1.167  -2.884
   2.069  -1.007  -2.884
   2.316  -0.806  -2.884
   2.527  -0.567  -2.884
   2.697  -0.298  -2.884
   2.822  -0.005  -2.884
   2.898   0.304  -2.884
   2.690   0.622  -3.093
   2.660   0.943  -3.093
   2.572   1.253  -3.093
   2.428   1.541  -3.093
   2.234   1.798  -3.093
   1.996   2.015  -3.093
   1.722   2.185  -3.093
   1.422   2.301  -3.093
   1.105   2.360  -3.093
   0.783   2.360  -3.093
   0.783  -1.116  -3.093
   1.105  -1.116  -3.093
   1.422  -1.057  -3.093
   1.722  -0.941  -3.093
   1.996  -0.771  -3.093
   2.234  -0.554  -3.093
   2.428  -0.297  -3.093
   2.572  -0.009  -3.093
   2.660   0.301  -3.093
   2.434   0.622  -3.275
   2.399   0.942  -3.275
   2.296   1.248  -3.275
   2.130   1.524  -3.275
   1.908   1.757  -3.275
   1.642   1.938  -3.275
   1.343   2.057  -3.275
   1.025   2.110  -3.275
   0.703   2.092  -3.275
   0.393  -0.762  -3.275
   0.703  -0.848  -3.275
   1.025  -0.866  -3.275
   1.343  -0.813  -3.275
   1.642  -0.694  -3.275
   1.908  -0.513  -3.275
   2.130  -0.280  -3.275
   2.296  -0.004  -3.275
   2.399   0.302  -3.275
   2.159   0.622  -3.427
   2.117   0.936  -3.427
   1.996   1.229  -3.427
   1.803   1.481  -3.427
   1.551   1.674  -3.427
   1.258   1.795  -3.427
   0.944   1.837  -3.427
   0.337  -0.430  -3.427
   0.630  -0.551  -3.427
   0.944  -0.593  -3.427
   1.258  -0.551  -3.427
   1.551  -0.430  -3.427
   1.803  -0.237  -3.427
   1.996   0.015  -3.427
   2.117   0.308  -3.427
   1.869   0.622  -3.547
   1.813   0.938  -3.547
   1.652   1.216  -3.547
   1.406   1.423  -3.547
   1.105   1.533  -3.547
   0.783   1.533  -3.547
   0.482  -0.179  -3.547
   0.783  -0.289  -3.547
   1.105  -0.289  -3.547
   1.406  -0.179  -3.547
   1.652   0.028  -3.547
   1.813   0.306  -3.547
   1.567   0.622  -3.634
   1.484   0.934  -3.634
   1.256   1.162  -3.634
   0.944   1.245  -3.634
   0.632   0.082  -3.634
   0.944  -0.001  -3.634
   1.256   0.082  -3.634
   1.484   0.310  -3.634
   1.258   0.622  -3.686
   1.101   0.894  -3.686
   0.787   0.894  -3.686
   0.630   0.622  -3.686
   0.787   0.350  -3.686
   1.101   0.350  -3.686
   0.944   0.622  -3.704
   0.117  -1.755   3.147
   0.439  -1.755   3.147
   0.917  -1.477   3.093
  -0.275  -1.796   3.093
  -0.041  -2.030   3.093
   0.278  -2.116   3.093
   0.597  -2.030   3.093
   0.831  -1.796   3.093
   1.226  -1.477   3.004
  -0.613  -1.801   3.004
  -0.448  -2.086   3.004
  -0.196  -2.298   3.004
   0.113  -2.410   3.004
   0.443  -2.411   3.004
   0.752  -2.298   3.004
   1.004  -2.086   3.004
   1.169  -1.801   3.004
   1.523  -1.477   2.881
  -0.925  -1.799   2.881
  -0.800  -2.100   2.881
  -0.603  -2.358   2.881
  -0.345  -2.555   2.881
  -0.044  -2.680   2.881
   0.278  -2.722   2.881
   0.600  -2.680   2.881
   0.901  -2.555   2.881
   1.159  -2.358   2.881
   1.356  -2.100   2.881
   1.481  -1.799   2.881
   1.805  -1.477   2.725
   1.769  -1.149   2.725
  -1.169  -1.965   2.725
  -1.030  -2.264   2.725
  -0.831  -2.527   2.725
  -0.579  -2.741   2.725
  -0.287  -2.895   2.725
   0.031  -2.984   2.725
   0.361  -3.002   2.725
   0.686  -2.948   2.725
   0.993  -2.826   2.725
   1.267  -2.641   2.725
   1.494  -2.401   2.725
   1.664  -2.118   2.725
   1.769  -1.805   2.725
   2.067  -1.477   2.539
   2.037  -1.148   2.539
  -1.481  -1.806   2.539
  -1.391  -2.123   2.539
  -1.243  -2.419   2.539
  -1.044  -2.683   2.539
  -0.800  -2.905   2.539
  -0.520  -3.079   2.539
  -0.212  -3.198   2.539
   0.113  -3.259   2.539
   0.443  -3.259   2.539
   0.768  -3.198   2.539
   1.076  -3.079   2.539
   1.356  -2.905   2.539
   1.600  -2.683   2.539
   1.799  -2.419   2.539
   1.947  -2.123   2.539
   2.037  -1.806   2.539
   2.307  -1.477   2.324
   2.281  -1.151   2.324
   2.203  -0.834   2.324
  -1.745  -1.640   2.324
  -1.692  -1.963   2.324
  -1.589  -2.272   2.324
  -1.437  -2.562   2.324
  -1.241  -2.823   2.324
  -1.005  -3.049   2.324
  -0.737  -3.235   2.324
  -0.442  -3.375   2.324
  -0.128  -3.465   2.324
   0.196  -3.505   2.324
   0.523  -3.492   2.324
   0.843  -3.426   2.324
   1.148  -3.310   2.324
   1.431  -3.147   2.324
   1.684  -2.941   2.324
   1.900  -2.696   2.324
   2.075  -2.420   2.324
   2.203  -2.120   2.324
   2.281  -1.803   2.324
   2.522  -1.477   2.084
   2.498  -1.150   2.084
   2.427  -0.831   2.084
  -1.912  -1.965   2.084
  -1.818  -2.279   2.084
  -1.679  -2.575   2.084
  -1.498  -2.848   2.084
  -1.279  -3.092   2.084
  -1.028  -3.302   2.084
  -0.748  -3.473   2.084
  -0.447  -3.601   2.084
  -0.130  -3.684   2.084
   0.196  -3.719   2.084
   0.523  -3.707   2.084
   0.846  -3.648   2.084
   1.156  -3.542   2.084
   1.447  -3.392   2.084
   1.713  -3.202   2.084
   1.949  -2.974   2.084
   2.149  -2.715   2.084
   2.310  -2.429   2.084
   2.427  -2.123   2.084
   2.498  -1.804   2.084
   2.708  -1.477   1.822
   2.686  -1.153   1.822
   2.622  -0.835   1.822
  -2.103  -1.961   1.822
  -2.018  -2.274   1.822
  -1.891  -2.573   1.822
  -1.725  -2.852   1.822
  -1.524  -3.107   1.822
  -1.291  -3.333   1.822
  -1.030  -3.525   1.822
  -0.745  -3.681   1.822
  -0.442  -3.798   1.822
  -0.126  -3.873   1.822
   0.197  -3.906   1.822
   0.521  -3.895   1.822
   0.841  -3.841   1.822
   1.151  -3.745   1.822
   1.446  -3.608   1.822
   1.719  -3.433   1.822
   1.967  -3.224   1.822
   2.185  -2.983   1.822
   2.369  -2.715   1.822
   2.515  -2.426   1.822
   2.622  -2.119   1.822
   2.686  -1.801   1.822
   2.864  -1.477   1.540
   2.843  -1.153   1.540
   2.783  -0.834   1.540
  -2.227  -2.120   1.540
  -2.126  -2.429   1.540
  -1.988  -2.723   1.540
  -1.814  -2.997   1.540
  -1.607  -3.247   1.540
  -1.370  -3.469   1.540
  -1.108  -3.660   1.540
  -0.823  -3.817   1.540
  -0.521  -3.936   1.540
  -0.207  -4.017   1.540
   0.116  -4.058   1.540
   0.440  -4.058   1.540
   0.763  -4.017   1.540
   1.077  -3.936   1.540
   1.379  -3.817   1.540
   1.664  -3.660   1.540
   1.926  -3.469   1.540
   2.163  -3.247   1.540
   2.370  -2.997   1.540
   2.544  -2.723   1.540
   2.682  -2.429   1.540
   2.783  -2.120   1.540
   2.843  -1.801   1.540
   2.987  -1.477   1.243
   2.967  -1.150   1.243
   2.908  -0.829   1.243
  -2.352  -2.125   1.243
  -2.255  -2.438   1.243
  -2.121  -2.736   1.243
  -1.951  -3.016   1.243
  -1.750  -3.273   1.243
  -1.518  -3.505   1.243
  -1.261  -3.706   1.243
  -0.981  -3.876   1.243
  -0.683  -4.010   1.243
  -0.370  -4.107   1.243
  -0.049  -4.166   1.243
   0.278  -4.186   1.243
   0.605  -4.166   1.243
   0.926  -4.107   1.243
   1.239  -4.010   1.243
   1.537  -3.876   1.243
   1.817  -3.706   1.243
   2.074  -3.505   1.243
   2.306  -3.273   1.243
   2.507  -3.016   1.243
   2.677  -2.736   1.243
   2.811  -2.438   1.243
   2.908  -2.125   1.243
   2.967  -1.804   1.243
   3.076  -1.477   0.934
   3.057  -1.152   0.934
   3.001  -0.832   0.934
  -2.351  -2.434   0.934
  -2.222  -2.733   0.934
  -2.060  -3.015   0.934
  -1.865  -3.276   0.934
  -1.642  -3.512   0.934
  -1.393  -3.721   0.934
  -1.121  -3.900   0.934
  -0.830  -4.046   0.934
  -0.524  -4.157   0.934
  -0.208  -4.233   0.934
   0.115  -4.270   0.934
   0.441  -4.270   0.934
   0.764  -4.233   0.934
   1.080  -4.157   0.934
   1.386  -4.046   0.934
   1.677  -3.900   0.934
   1.949  -3.721   0.934
   2.198  -3.512   0.934
   2.421  -3.276   0.934
   2.616  -3.015   0.934
   2.778  -2.733   0.934
   2.907  -2.434   0.934
   3.001  -2.122   0.934
   3.057  -1.802   0.934
   3.130  -1.477   0.616
   3.111  -1.152   0.616
  -2.349  -2.587   0.616
  -2.205  -2.879   0.616
  -2.029  -3.153   0.616
  -1.823  -3.405   0.616
  -1.590  -3.632   0.616
  -1.332  -3.831   0.616
  -1.053  -3.999   0.616
  -0.757  -4.135   0.616
  -0.447  -4.235   0.616
  -0.128  -4.300   0.616
   0.197  -4.328   0.616
   0.522  -4.318   0.616
   0.844  -4.272   0.616
   1.159  -4.189   0.616
   1.463  -4.071   0.616
   1.751  -3.919   0.616
   2.020  -3.735   0.616
   2.266  -3.522   0.616
   2.486  -3.282   0.616
   2.677  -3.019   0.616
   2.837  -2.735   0.616
   2.964  -2.435   0.616
   3.056  -2.123   0.616
   3.111  -1.802   0.616
   3.148  -1.477   0.295
   3.130  -1.156   0.295
  -2.308  -2.722   0.295
  -2.152  -3.004   0.295
  -1.966  -3.266   0.295
  -1.751  -3.506   0.295
  -1.511  -3.721   0.295
  -1.249  -3.907   0.295
  -0.967  -4.063   0.295
  -0.670  -4.186   0.295
  -0.361  -4.275   0.295
  -0.043  -4.329   0.295
   0.278  -4.347   0.295
   0.599  -4.329   0.295
   0.917  -4.275   0.295
   1.226  -4.186   0.295
   1.523  -4.063   0.295
   1.805  -3.907   0.295
   2.067  -3.721   0.295
   2.307  -3.506   0.295
   2.522  -3.266   0.295
   2.708  -3.004   0.295
   2.864  -2.722   0.295
   2.987  -2.425   0.295
   3.076  -2.116   0.295
   3.130  -1.798   0.295
   3.130  -1.477  -0.026
   3.111  -1.152  -0.026
  -2.205  -2.879  -0.026
  -2.029  -3.153  -0.026
  -1.823  -3.405  -0.026
  -1.590  -3.632  -0.026
  -1.332  -3.831  -0.026
  -1.053  -3.999  -0.026
  -0.757  -4.135  -0.026
  -0.447  -4.235  -0.026
  -0.128  -4.300  -0.026
   0.197  -4.328  -0.026
   0.522  -4.318  -0.026
   0.844  -4.272  -0.026
   1.159  -4.189  -0.026
   1.463  -4.071  -0.026
   1.751  -3.919  -0.026
   2.020  -3.735  -0.026
   2.266  -3.522  -0.026
   2.486  -3.282  -0.026
   2.677  -3.019  -0.026
   2.837  -2.735  -0.026
   2.964  -2.435  -0.026
   3.056  -2.123  -0.026
   3.111  -1.802  -0.026
   3.076  -1.477  -0.344
   3.057  -1.152  -0.344
  -2.060  -3.015  -0.344
  -1.865  -3.276  -0.344
  -1.642  -3.512  -0.344
  -1.393  -3.721  -0.344
  -1.121  -3.900  -0.344
  -0.830  -4.046  -0.344
  -0.524  -4.157  -0.344
  -0.208  -4.233  -0.344
   0.115  -4.270  -0.344
   0.441  -4.270  -0.344
   0.764  -4.233  -0.344
   1.080  -4.158  -0.344
   1.386  -4.046  -0.344
   1.677  -3.900  -0.344
   1.949  -3.721  -0.344
   2.198  -3.512  -0.344
   2.421  -3.276  -0.344
   2.616  -3.015  -0.344
   2.778  -2.733  -0.344
   2.907  -2.434  -0.344
   3.001  -2.122  -0.344
   3.057  -1.802  -0.344
   2.987  -1.477  -0.653
  -1.951  -3.016  -0.653
  -1.750  -3.273  -0.653
  -1.518  -3.505  -0.653
  -1.261  -3.706  -0.653
  -0.981  -3.876  -0.653
  -0.683  -4.010  -0.653
  -0.370  -4.107  -0.653
  -0.049  -4.166  -0.653
   0.278  -4.186  -0.653
   0.605  -4.166  -0.653
   0.926  -4.107  -0.653
   1.239  -4.010  -0.653
   1.537  -3.876  -0.653
   1.817  -3.706  -0.653
   2.074  -3.505  -0.653
   2.306  -3.273  -0.653
   2.507  -3.016  -0.653
   2.677  -2.736  -0.653
   2.811  -2.438  -0.653
   2.908  -2.125  -0.653
   2.967  -1.804  -0.653
   2.864  -1.477  -0.950
  -1.814  -2.997  -0.950
  -1.607  -3.247  -0.950
  -1.370  -3.469  -0.950
  -1.108  -3.660  -0.950
  -0.823  -3.817  -0.950
  -0.521  -3.936  -0.950
  -0.207  -4.017  -0.950
   0.116  -4.058  -0.950
   0.440  -4.058  -0.950
   0.763  -4.017  -0.950
   1.077  -3.936  -0.950
   1.379  -3.817  -0.950
   1.664  -3.660  -0.950
   1.926  -3.469  -0.950
   2.163  -3.247  -0.950
   2.370  -2.997  -0.950
   2.544  -2.723  -0.950
   2.682  -2.429  -0.950
   2.783  -2.120  -0.950
   2.843  -1.801  -0.950
  -1.524  -3.107  -1.232
  -1.291  -3.333  -1.232
  -1.030  -3.525  -1.232
  -0.745  -3.681  -1.232
  -0.442  -3.798  -1.232
  -0.126  -3.873  -1.232
   0.197  -3.906  -1.232
   0.521  -3.895  -1.232
   0.841  -3.841  -1.232
   1.151  -3.745  -1.232
   1.446  -3.608  -1.232
   1.719  -3.433  -1.232
   1.967  -3.224  -1.232
   2.185  -2.983  -1.232
   2.369  -2.715  -1.232
   2.515  -2.426  -1.232
   2.622  -2.119  -1.232
   2.686  -1.801  -1.232
  -1.498  -2.848  -1.494
  -1.279  -3.092  -1.494
  -1.028  -3.302  -1.494
  -0.748  -3.473  -1.494
  -0.447  -3.601  -1.494
  -0.130  -3.684  -1.494
   0.196  -3.719  -1.494
   0.523  -3.707  -1.494
   0.846  -3.648  -1.494
   1.156  -3.542  -1.494
   1.447  -3.392  -1.494
   1.713  -3.202  -1.494
   1.949  -2.974  -1.494
   2.149  -2.715  -1.494
   2.310  -2.429  -1.494
   2.427  -2.123  -1.494
   2.498  -1.804  -1.494
  -1.241  -2.823  -1.734
  -1.005  -3.049  -1.734
  -0.737  -3.235  -1.734
  -0.442  -3.375  -1.734
  -0.128  -3.465  -1.734
   0.196  -3.505  -1.734
   0.523  -3.492  -1.734
   0.843  -3.426  -1.734
   1.148  -3.310  -1.734
   1.431  -3.147  -1.734
   1.684  -2.941  -1.734
   1.900  -2.696  -1.734
   2.075  -2.420  -1.734
   2.203  -2.120  -1.734
   2.281  -1.803  -1.734
  -1.044  -2.683  -1.949
  -0.800  -2.905  -1.949
  -0.520  -3.079  -1.949
  -0.212  -3.198  -1.949
   0.113  -3.259  -1.949
   0.443  -3.259  -1.949
   0.768  -3.198  -1.949
   1.076  -3.079  -1.949
   1.356  -2.905  -1.949
   1.600  -2.683  -1.949
   1.799  -2.419  -1.949
   1.947  -2.123  -1.949
   2.037  -1.806  -1.949
  -0.831  -2.527  -2.135
  -0.579  -2.741  -2.135
  -0.287  -2.895  -2.135
   0.031  -2.984  -2.135
   0.361  -3.002  -2.135
   0.686  -2.948  -2.135
   0.993  -2.826  -2.135
   1.267  -2.641  -2.135
   1.494  -2.401  -2.135
   1.664  -2.118  -2.135
   1.769  -1.805  -2.135
  -0.603  -2.358  -2.291
  -0.345  -2.555  -2.291
  -0.044  -2.680  -2.291
   0.278  -2.722  -2.291
   0.600  -2.680  -2.291
   0.901  -2.555  -2.291
   1.159  -2.358  -2.291
   1.356  -2.100  -2.291
  -0.196  -2.298  -2.414
   0.113  -2.411  -2.414
   0.443  -2.411  -2.414
   0.752  -2.298  -2.414
   1.004  -2.086  -2.414
  -2.888   0.314   1.772
  -2.957  -0.001   1.772
  -2.957  -0.323   1.772
  -2.888  -0.638   1.772
  -2.752  -0.930   1.772
  -2.558  -1.186   1.772
  -3.104   0.469   1.590
  -3.192   0.159   1.590
  -3.222  -0.162   1.590
  -3.192  -0.483   1.590
  -3.104  -0.793   1.590
  -2.960  -1.081   1.590
  -2.766  -1.338   1.590
  -2.528  -1.555   1.590
  -3.449  -0.003   1.381
  -3.449  -0.321   1.381
  -3.398  -0.636   1.381
  -3.297  -0.938   1.381
  -3.149  -1.220   1.381
  -2.958  -1.475   1.381
  -2.728  -1.696   1.381
  -2.466  -1.877   1.381
  -3.659  -0.322   1.147
  -3.613  -0.638   1.147
  -3.521  -0.944   1.147
  -3.385  -1.233   1.147
  -3.209  -1.500   1.147
  -2.995  -1.738   1.147
  -2.750  -1.942   1.147
  -2.477  -2.109   1.147
  -3.799  -0.634   0.891
  -3.716  -0.940   0.891
  -3.592  -1.231   0.891
  -3.431  -1.504   0.891
  -3.234  -1.752   0.891
  -3.007  -1.972   0.891
  -2.752  -2.160   0.891
  -2.474  -2.313   0.891
  -3.919  -0.789   0.616
  -3.822  -1.091   0.616
  -3.687  -1.377   0.616
  -3.517  -1.645   0.616
  -3.315  -1.889   0.616
  -3.084  -2.106   0.616
  -2.828  -2.292   0.616
  -2.550  -2.445   0.616
  -3.947  -1.099   0.326
  -3.816  -1.390   0.326
  -3.651  -1.663   0.326
  -3.454  -1.915   0.326
  -3.229  -2.140   0.326
  -2.977  -2.337   0.326
  -2.704  -2.502   0.326
  -2.413  -2.633   0.326
  -3.757  -1.662   0.024
  -3.567  -1.917   0.024
  -3.349  -2.148   0.024
  -3.106  -2.352   0.024
  -2.841  -2.526   0.024
  -2.557  -2.669   0.024
  -3.727  -1.797  -0.285
  -3.526  -2.043  -0.285
  -3.298  -2.265  -0.285
  -3.047  -2.459  -0.285
  -2.774  -2.623  -0.285
  -2.485  -2.755  -0.285
  -2.183  -2.853  -0.285
  -3.665  -1.908  -0.599
  -3.456  -2.142  -0.599
  -3.222  -2.351  -0.599
  -2.966  -2.533  -0.599
  -2.691  -2.685  -0.599
  -2.401  -2.805  -0.599
  -2.099  -2.892  -0.599
  -3.298  -2.265  -0.912
  -3.047  -2.459  -0.912
  -2.774  -2.623  -0.912
  -2.485  -2.755  -0.912
  -2.183  -2.853  -0.912
  -3.106  -2.352  -1.222
  -2.841  -2.526  -1.222
  -2.557  -2.669  -1.222
  -2.259  -2.777  -1.222
  -1.950  -2.850  -1.222
  -2.977  -2.337  -1.524
  -2.704  -2.502  -1.524
  -2.413  -2.633  -1.524
  -2.108  -2.728  -1.524
  -1.795  -2.786  -1.524
  -2.828  -2.292  -1.814
  -2.550  -2.445  -1.814
  -2.256  -2.561  -1.814
  -1.949  -2.640  -1.814
  -1.634  -2.680  -1.814
  -1.318  -2.680  -1.814
  -2.752  -2.160  -2.089
  -2.474  -2.313  -2.089
  -2.178  -2.426  -2.089
  -1.870  -2.500  -2.089
  -1.555  -2.532  -2.089
  -1.239  -2.521  -2.089
  -2.477  -2.109  -2.345
  -2.183  -2.234  -2.345
  -1.874  -2.315  -2.345
  -1.556  -2.350  -2.345
  -1.237  -2.338  -2.345
  -0.922  -2.280  -2.345
  -2.178  -2.013  -2.579
  -1.872  -2.102  -2.579
  -1.556  -2.140  -2.579
  -1.237  -2.127  -2.579
  -0.925  -2.064  -2.579
  -1.637  -1.900  -2.788
  -1.315  -1.900  -2.788
  -0.998  -1.841  -2.788
  -0.698  -1.725  -2.788
  -1.077  -1.597  -2.970
  -0.778  -1.478  -2.970
  -3.176   0.856   1.549
  -3.497   0.856   1.416
  -3.451   0.508   1.416
  -3.792   1.034   1.248
  -3.792   0.678   1.248
  -3.715   0.329   1.248
  -4.085   0.856   1.047
  -4.052   0.501   1.047
  -3.954   0.158   1.047
  -3.795  -0.161   1.047
  -4.337   1.032   0.815
  -4.337   0.680   0.815
  -4.280   0.331   0.815
  -4.169  -0.003   0.815
  -4.005  -0.316   0.815
  -4.569   1.033   0.556
  -4.569   0.679   0.556
  -4.518   0.329   0.556
  -4.416  -0.010   0.556
  -4.266  -0.330   0.556
  -4.070  -0.625   0.556
  -4.724   1.379   0.272
  -4.771   1.031   0.272
  -4.857   1.551  -0.032
  -4.888   1.894  -0.353
  -4.992   1.890  -0.687
  -4.990   2.055  -1.030
  -0.219   3.280  -1.377
  -4.777   2.505  -1.377
  -4.945   2.201  -1.377
  -0.271   3.295  -1.724
  -0.561   3.494  -1.724
  -4.644   2.667  -1.724
  -4.834   2.371  -1.724
  -0.955   3.631  -2.067
  -4.226   3.054  -2.067
  -4.467   2.799  -2.067
  -4.677   2.517  -2.067
  -1.452   3.697  -2.401
  -1.799   3.761  -2.401
  -2.152   3.782  -2.401
  -3.512   3.447  -2.401
  -3.814   3.264  -2.401
  -4.092   3.046  -2.401
  -4.342   2.796  -2.401
  -4.560   2.518  -2.401
  -2.505  -2.049  -2.401
  -1.977   3.643  -2.722
  -2.327   3.643  -2.722
  -2.675   3.600  -2.722
  -3.015   3.512  -2.722
  -3.341   3.383  -2.722
  -3.649   3.214  -2.722
  -3.932   3.008  -2.722
  -4.188   2.768  -2.722
  -4.412   2.498  -2.722
  -2.327  -1.931  -2.722
  -1.977  -1.931  -2.722
  -2.240   3.479  -3.026
  -2.589   3.444  -3.026
  -2.930   3.363  -3.026
  -3.257   3.237  -3.026
  -3.564   3.068  -3.026
  -3.847   2.860  -3.026
  -4.099   2.617  -3.026
  -4.316   2.342  -3.026
  -2.240  -1.767  -3.026
  -1.889  -1.756  -3.026
  -1.544  -1.697  -3.026
  -1.209  -1.593  -3.026
  -0.891  -1.446  -3.026
  -0.595  -1.257  -3.026
  -2.592   3.239  -3.310
  -2.935   3.150  -3.310
  -3.260   3.011  -3.310
  -3.562   2.827  -3.310
  -3.834   2.601  -3.310
  -4.070   2.337  -3.310
  -4.266   2.042  -3.310
  -2.241  -1.566  -3.310
  -1.887  -1.553  -3.310
  -1.539  -1.489  -3.310
  -1.204  -1.375  -3.310
  -0.889  -1.213  -3.310
  -2.929   2.906  -3.569
  -3.248   2.754  -3.569
  -3.538   2.554  -3.569
  -3.793   2.310  -3.569
  -4.005   2.028  -3.569
  -2.240  -1.334  -3.569
  -1.888  -1.320  -3.569
  -1.542  -1.249  -3.569
  -3.014   2.586  -3.801
  -3.317   2.398  -3.801
  -3.580   2.158  -3.801
  -3.795   1.874  -3.801
  -2.330  -1.069  -3.801
  -1.974  -1.069  -3.801
  -3.349   1.990  -4.002
  -3.565   1.706  -4.002
  -3.715   1.383  -4.002
  -2.419  -0.772  -4.002
  -2.063  -0.791  -4.002
  -3.317   1.529  -4.170
  -3.451   1.204  -4.170
  -2.825  -0.309  -4.170
  -2.500  -0.443  -4.170
  -3.176   0.856  -4.303
  -3.114   0.506  -4.303
  -2.936   0.198  -4.303
  -4.309   1.309   0.838
  -4.779   1.751   0.076
  -4.843   2.045  -0.204
  -4.871   2.192  -0.492
  -4.860   2.330  -0.783
  -4.804   2.479  -1.074