 $system timlim=999888777
         mwords=100 $end
 $contrl exetyp=run
         runtyp=energy scftyp=rhf
         icharg=-1 mult=1 units=angs coord=unique
         maxit=50 ispher=1 qmttol=1d-6 icut=12 itol=22 $end
 $scf    dirscf=.t. diis=.t. soscf=.f.
         fdiff=.f. conv=1d-6
         npreo(1)=0,-1,1,9999 $end
 $elpot  iepot=1 where=points $end
 $basis  gbasis=n311 ngauss=6
         ndfunc=1 npfunc=1 diffsp=.t. diffs=.t. $end
 $DATA
TS1a_hfd_irc200_all_revmov.pdb
C1
P     15.0    -0.04200   0.01500  -0.02600 
O      8.0    -0.12300   0.53800   1.43600 
O      8.0     0.94000   0.63900  -0.89400 
F      9.0     0.28500  -1.48200   0.27000 
O      8.0    -1.47700  -0.16100  -0.59900 
C      6.0    -2.15200   0.85600  -1.37700 
H      1.0    -2.29600   1.76200  -0.79400 
H      1.0    -1.56800   1.04900  -2.26700 
H      1.0    -3.09800   0.41000  -1.64500 
C      6.0    -0.04900   1.94200   1.78200 
H      1.0    -0.10000   1.95800   2.86200 
H      1.0     0.90600   2.32500   1.45100 
H      1.0    -0.87500   2.49700   1.34300 
O      8.0    -2.35800   3.35400   0.36800 
H      1.0    -2.72000   4.22900   0.30800 
 $END
 $POINTS
ANGS 3136
  -2.452  -0.907   2.032
  -2.292  -1.248   2.032
  -2.084  -1.562   2.032
   2.429  -0.728   2.032
   2.511  -0.361   2.032
   2.752   0.015   1.730
   2.727   0.387   1.730
  -2.346  -1.566   1.730
   2.653  -0.723   1.730
   2.727  -0.357   1.730
   2.931   0.015   1.406
   2.908   0.388   1.406
   2.838  -0.724   1.406
   2.908  -0.358   1.406
   3.073   0.015   1.064
   3.050   0.390   1.064
   2.982   0.760   1.064
   2.982  -0.730   1.064
   3.050  -0.360   1.064
   3.175   0.015   0.708
   3.089  -0.727   0.708
   3.154  -0.359   0.708
   3.152  -0.728   0.343
   1.574  -1.668  -2.359
  -0.605  -1.964  -2.606
  -0.232  -2.034  -2.606
   0.148  -2.034  -2.606
   0.521  -1.964  -2.606
   0.875  -1.827  -2.606
   1.198  -1.627  -2.606
  -0.326  -1.718  -2.820
   0.053  -1.738  -2.820
   0.428  -1.677  -2.820
   0.780  -1.536  -2.820
  -0.413  -1.368  -2.999
  -0.042  -1.417  -2.999
   0.329  -1.368  -2.999
   0.674  -1.225  -2.999
  -0.231  -1.058  -3.141
   0.147  -1.058  -3.141
  -0.284  -0.373   4.079
   0.038  -0.373   4.079
  -0.982  -0.321   3.959
  -0.730  -0.514   3.959
  -0.437  -0.635   3.959
  -0.123  -0.677   3.959
   0.191  -0.635   3.959
   0.484  -0.514   3.959
   0.736  -0.321   3.959
  -1.399  -0.230   3.807
  -1.205  -0.486   3.807
  -0.959  -0.695   3.807
  -0.674  -0.846   3.807
  -0.364  -0.932   3.807
  -0.042  -0.950   3.807
   0.276  -0.897   3.807
   0.575  -0.778   3.807
   0.841  -0.597   3.807
   1.063  -0.364   3.807
   1.229  -0.088   3.807
  -1.751  -0.093   3.625
  -1.607  -0.381   3.625
  -1.413  -0.638   3.625
  -1.175  -0.855   3.625
  -0.901  -1.025   3.625
  -0.601  -1.141   3.625
  -0.284  -1.200   3.625
   0.038  -1.200   3.625
   0.355  -1.141   3.625
   0.655  -1.025   3.625
   0.929  -0.855   3.625
   1.167  -0.638   3.625
   1.361  -0.381   3.625
   1.505  -0.093   3.625
  -2.045   0.064   3.416
  -1.944  -0.238   3.416
  -1.796  -0.520   3.416
  -1.605  -0.775   3.416
  -1.375  -0.996   3.416
  -1.113  -1.177   3.416
  -0.825  -1.313   3.416
  -0.519  -1.402   3.416
  -0.203  -1.440   3.416
   0.116  -1.427   3.416
   0.428  -1.364   3.416
   0.726  -1.251   3.416
   1.002  -1.091   3.416
   1.249  -0.890   3.416
   1.460  -0.651   3.416
   1.630  -0.382   3.416
   1.755  -0.089   3.416
  -2.260   0.062   3.182
  -2.168  -0.244   3.182
  -2.032  -0.533   3.182
  -1.856  -0.800   3.182
  -1.642  -1.038   3.182
  -1.397  -1.242   3.182
  -1.124  -1.409   3.182
  -0.830  -1.534   3.182
  -0.521  -1.615   3.182
  -0.203  -1.650   3.182
   0.116  -1.638   3.182
   0.431  -1.580   3.182
   0.733  -1.477   3.182
   1.017  -1.331   3.182
   1.277  -1.145   3.182
   1.507  -0.923   3.182
   1.703  -0.670   3.182
   1.859  -0.391   3.182
   1.973  -0.093   3.182
  -2.489   0.380   2.926
  -2.446   0.066   2.926
  -2.363  -0.240   2.926
  -2.239  -0.531   2.926
  -2.078  -0.804   2.926
  -1.881  -1.052   2.926
  -1.654  -1.272   2.926
  -1.399  -1.460   2.926
  -1.121  -1.613   2.926
  -0.825  -1.726   2.926
   1.525  -1.166   2.926
   1.738  -0.931   2.926
   1.917  -0.670   2.926
   2.060  -0.388   2.926
   2.164  -0.088   2.926
  -2.626   0.222   2.651
  -2.566  -0.089   2.651
  -2.469  -0.391   2.651
  -2.334  -0.677   2.651
  -2.164  -0.945   2.651
  -1.962  -1.189   2.651
  -1.731  -1.406   2.651
  -1.475  -1.592   2.651
   1.918  -0.945   2.651
   2.088  -0.677   2.651
   2.223  -0.391   2.651
   2.320  -0.089   2.651
   2.380   0.222   2.651
  -2.766   0.538   2.361
  -2.747   0.219   2.361
  -2.689  -0.094   2.361
  -2.594  -0.399   2.361
  -2.463  -0.690   2.361
  -2.298  -0.963   2.361
  -2.101  -1.215   2.361
  -1.876  -1.440   2.361
   2.217  -0.690   2.361
   2.348  -0.399   2.361
   2.443  -0.094   2.361
   2.501   0.219   2.361
  -2.853   0.538   2.059
  -2.834   0.221   2.059
  -2.779  -0.092   2.059
  -2.688  -0.396   2.059
  -2.562  -0.687   2.059
   2.533  -0.092   2.059
   2.588   0.221   2.059
  -2.901   0.697   1.750
   3.129   0.639   0.852
   3.106   0.958   0.852
   3.311   0.639   0.596
   3.290   0.955   0.596
   3.227   1.265   0.596
   3.227   0.013   0.596
   3.290   0.323   0.596
   3.463   0.639   0.321
   3.443   0.955   0.321
   3.383   1.266   0.321
   3.286   1.568   0.321
   3.286  -0.290   0.321
   3.383   0.012   0.321
   3.443   0.323   0.321
   3.583   0.639   0.031
   3.564   0.958   0.031
   3.506   1.271   0.031
   3.411   1.576   0.031
   3.280   1.867   0.031
   3.115   2.140   0.031
   3.280  -0.589   0.031
   3.411  -0.298   0.031
   3.506   0.007   0.031
   3.564   0.320   0.031
   3.670   0.639  -0.271
   3.651   0.956  -0.271
   3.596   1.269  -0.271
   3.505   1.573  -0.271
   3.379   1.864  -0.271
   3.221   2.139  -0.271
   3.031   2.394  -0.271
   3.221  -0.861  -0.271
   3.379  -0.586  -0.271
   3.505  -0.295  -0.271
   3.596   0.009  -0.271
   3.651   0.322  -0.271
   3.722   0.639  -0.580
   3.704   0.956  -0.580
   3.650   1.269  -0.580
   3.561   1.574  -0.580
   3.437   1.867  -0.580
   3.281   2.143  -0.580
   3.094   2.400  -0.580
   2.879   2.634  -0.580
   2.639   2.842  -0.580
   2.377   3.022  -0.580
   3.094  -1.122  -0.580
   3.281  -0.865  -0.580
   3.437  -0.589  -0.580
   3.561  -0.296  -0.580
   3.650   0.009  -0.580
   3.704   0.322  -0.580
   3.740   0.639  -0.894
   3.722   0.953  -0.894
   3.670   1.262  -0.894
   3.583   1.564  -0.894
   3.463   1.854  -0.894
   3.311   2.129  -0.894
   3.129   2.385  -0.894
   2.920   2.619  -0.894
   2.686   2.828  -0.894
   2.430   3.010  -0.894
   2.155   3.162  -0.894
   1.865   3.282  -0.894
   1.563   3.369  -0.894
   1.254   3.421  -0.894
   0.627   3.421  -0.894
   2.920  -1.341  -0.894
   3.129  -1.107  -0.894
   3.311  -0.851  -0.894
   3.463  -0.576  -0.894
   3.583  -0.286  -0.894
   3.670   0.016  -0.894
   3.722   0.325  -0.894
   3.722   0.639  -1.207
   3.704   0.956  -1.207
   3.650   1.269  -1.207
   3.561   1.574  -1.207
   3.437   1.867  -1.207
   3.281   2.143  -1.207
   3.094   2.400  -1.207
   2.879   2.634  -1.207
   2.639   2.842  -1.207
   2.377   3.022  -1.207
   2.096   3.170  -1.207
   1.800   3.285  -1.207
   1.493   3.366  -1.207
   1.178   3.411  -1.207
   0.861   3.420  -1.207
   0.544   3.393  -1.207
   0.233   3.330  -1.207
   2.879  -1.356  -1.207
   3.094  -1.122  -1.207
   3.281  -0.865  -1.207
   3.437  -0.589  -1.207
   3.561  -0.296  -1.207
   3.650   0.009  -1.207
   3.704   0.322  -1.207
   3.670   0.639  -1.517
   3.651   0.956  -1.517
   3.596   1.269  -1.517
   3.505   1.573  -1.517
   3.379   1.864  -1.517
   3.221   2.139  -1.517
   3.031   2.394  -1.517
   2.813   2.625  -1.517
   2.570   2.829  -1.517
   2.305   3.003  -1.517
   2.021   3.146  -1.517
   1.723   3.254  -1.517
   1.414   3.327  -1.517
   1.099   3.364  -1.517
   0.781   3.364  -1.517
   0.466   3.327  -1.517
   0.157   3.254  -1.517
   2.570  -1.551  -1.517
   2.813  -1.347  -1.517
   3.031  -1.116  -1.517
   3.221  -0.861  -1.517
   3.379  -0.586  -1.517
   3.505  -0.295  -1.517
   3.596   0.009  -1.517
   3.651   0.322  -1.517
   3.583   0.639  -1.819
   3.564   0.958  -1.819
   3.506   1.271  -1.819
   3.411   1.576  -1.819
   3.280   1.867  -1.819
   3.115   2.140  -1.819
   2.918   2.392  -1.819
   2.693   2.617  -1.819
   2.441   2.814  -1.819
   2.168   2.979  -1.819
   1.877   3.110  -1.819
   1.572   3.205  -1.819
   1.259   3.263  -1.819
   0.940   3.282  -1.819
   0.621   3.263  -1.819
   0.308   3.205  -1.819
   0.003   3.110  -1.819
   2.441  -1.536  -1.819
   2.693  -1.339  -1.819
   2.918  -1.114  -1.819
   3.115  -0.862  -1.819
   3.280  -0.589  -1.819
   3.411  -0.298  -1.819
   3.506   0.007  -1.819
   3.564   0.320  -1.819
   3.463   0.639  -2.109
   3.443   0.955  -2.109
   3.383   1.266  -2.109
   3.286   1.568  -2.109
   3.151   1.854  -2.109
   2.981   2.122  -2.109
   2.779   2.366  -2.109
   2.548   2.583  -2.109
   2.292   2.769  -2.109
   2.014   2.922  -2.109
   1.720   3.038  -2.109
   1.413   3.117  -2.109
   1.098   3.157  -2.109
   0.782   3.157  -2.109
   0.467   3.117  -2.109
   0.160   3.038  -2.109
   2.014  -1.644  -2.109
   2.292  -1.491  -2.109
   2.548  -1.305  -2.109
   2.779  -1.088  -2.109
   2.981  -0.844  -2.109
   3.151  -0.576  -2.109
   3.286  -0.290  -2.109
   3.383   0.012  -2.109
   3.443   0.323  -2.109
   3.311   0.639  -2.384
   3.290   0.955  -2.384
   3.227   1.265  -2.384
   3.123   1.565  -2.384
   2.980   1.847  -2.384
   2.801   2.108  -2.384
   2.588   2.343  -2.384
   2.346   2.548  -2.384
   2.079   2.718  -2.384
   1.792   2.851  -2.384
   1.490   2.945  -2.384
   1.177   2.998  -2.384
   0.861   3.009  -2.384
   0.546   2.977  -2.384
   1.792  -1.573  -2.384
   2.079  -1.440  -2.384
   2.346  -1.270  -2.384
   2.588  -1.065  -2.384
   2.801  -0.830  -2.384
   2.980  -0.569  -2.384
   3.123  -0.287  -2.384
   3.227   0.013  -2.384
   3.290   0.323  -2.384
   3.129   0.639  -2.640
   3.106   0.958  -2.640
   3.036   1.270  -2.640
   2.922   1.568  -2.640
   2.766   1.847  -2.640
   2.570   2.100  -2.640
   2.340   2.322  -2.640
   2.080   2.508  -2.640
   1.796   2.654  -2.640
   1.494   2.757  -2.640
   1.179   2.815  -2.640
   0.860   2.827  -2.640
   0.542   2.792  -2.640
   1.494  -1.479  -2.640
   1.796  -1.376  -2.640
   2.080  -1.230  -2.640
   2.340  -1.044  -2.640
   2.570  -0.822  -2.640
   2.766  -0.569  -2.640
   2.922  -0.290  -2.640
   3.036   0.008  -2.640
   3.106   0.320  -2.640
   2.920   0.639  -2.874
   2.894   0.957  -2.874
   2.818   1.266  -2.874
   2.693   1.559  -2.874
   2.523   1.828  -2.874
   2.312   2.067  -2.874
   2.065   2.268  -2.874
   1.789   2.428  -2.874
   1.491   2.541  -2.874
   1.179   2.604  -2.874
   0.860   2.617  -2.874
   0.544   2.579  -2.874
   1.179  -1.326  -2.874
   1.491  -1.263  -2.874
   1.789  -1.150  -2.874
   2.065  -0.990  -2.874
   2.312  -0.789  -2.874
   2.523  -0.550  -2.874
   2.693  -0.281  -2.874
   2.818   0.012  -2.874
   2.894   0.321  -2.874
   2.686   0.639  -3.083
   2.656   0.960  -3.083
   2.568   1.270  -3.083
   2.424   1.558  -3.083
   2.230   1.815  -3.083
   1.992   2.032  -3.083
   1.718   2.202  -3.083
   1.418   2.318  -3.083
   1.101   2.377  -3.083
   0.779   2.377  -3.083
   0.779  -1.099  -3.083
   1.101  -1.099  -3.083
   1.418  -1.040  -3.083
   1.718  -0.924  -3.083
   1.992  -0.754  -3.083
   2.230  -0.537  -3.083
   2.424  -0.280  -3.083
   2.568   0.008  -3.083
   2.656   0.318  -3.083
   2.430   0.639  -3.265
   2.395   0.959  -3.265
   2.292   1.265  -3.265
   2.126   1.541  -3.265
   1.904   1.774  -3.265
   1.638   1.955  -3.265
   1.339   2.074  -3.265
   1.021   2.127  -3.265
   0.699   2.109  -3.265
   0.389  -0.745  -3.265
   0.699  -0.831  -3.265
   1.021  -0.849  -3.265
   1.339  -0.796  -3.265
   1.638  -0.677  -3.265
   1.904  -0.496  -3.265
   2.126  -0.263  -3.265
   2.292   0.013  -3.265
   2.395   0.319  -3.265
   2.155   0.639  -3.417
   2.113   0.953  -3.417
   1.992   1.246  -3.417
   1.799   1.498  -3.417
   1.547   1.691  -3.417
   1.254   1.812  -3.417
   0.940   1.854  -3.417
   0.333  -0.413  -3.417
   0.626  -0.534  -3.417
   0.940  -0.576  -3.417
   1.254  -0.534  -3.417
   1.547  -0.413  -3.417
   1.799  -0.220  -3.417
   1.992   0.032  -3.417
   2.113   0.325  -3.417
   1.865   0.639  -3.537
   1.809   0.955  -3.537
   1.648   1.233  -3.537
   1.402   1.440  -3.537
   1.101   1.550  -3.537
   0.779   1.550  -3.537
   0.478  -0.162  -3.537
   0.779  -0.272  -3.537
   1.101  -0.272  -3.537
   1.402  -0.162  -3.537
   1.648   0.045  -3.537
   1.809   0.323  -3.537
   1.563   0.639  -3.624
   1.480   0.951  -3.624
   1.252   1.179  -3.624
   0.940   1.262  -3.624
   0.628   0.099  -3.624
   0.940   0.016  -3.624
   1.252   0.099  -3.624
   1.480   0.327  -3.624
   1.254   0.639  -3.676
   1.097   0.911  -3.676
   0.783   0.911  -3.676
   0.626   0.639  -3.676
   0.783   0.367  -3.676
   1.097   0.367  -3.676
   0.940   0.639  -3.694
   0.124  -1.760   3.122
   0.446  -1.760   3.122
  -0.268  -1.801   3.068
  -0.034  -2.035   3.068
   0.285  -2.121   3.068
   0.604  -2.035   3.068
   0.838  -1.801   3.068
   1.233  -1.482   2.979
  -0.606  -1.806   2.979
  -0.441  -2.091   2.979
  -0.189  -2.303   2.979
   0.120  -2.415   2.979
   0.450  -2.415   2.979
   0.759  -2.303   2.979
   1.011  -2.091   2.979
   1.176  -1.806   2.979
   1.530  -1.482   2.856
  -0.918  -1.804   2.856
  -0.793  -2.105   2.856
  -0.596  -2.363   2.856
  -0.338  -2.560   2.856
  -0.037  -2.685   2.856
   0.285  -2.727   2.856
   0.607  -2.685   2.856
   0.908  -2.560   2.856
   1.166  -2.363   2.856
   1.363  -2.105   2.856
   1.488  -1.804   2.856
   1.812  -1.482   2.700
   1.776  -1.154   2.700
  -1.162  -1.970   2.700
  -1.023  -2.269   2.700
  -0.824  -2.532   2.700
  -0.572  -2.746   2.700
  -0.280  -2.900   2.700
   0.038  -2.989   2.700
   0.368  -3.007   2.700
   0.693  -2.953   2.700
   1.000  -2.831   2.700
   1.274  -2.646   2.700
   1.501  -2.406   2.700
   1.671  -2.123   2.700
   1.776  -1.810   2.700
   2.074  -1.482   2.514
   2.044  -1.153   2.514
  -1.474  -1.811   2.514
  -1.384  -2.128   2.514
  -1.236  -2.424   2.514
  -1.037  -2.688   2.514
  -0.793  -2.910   2.514
  -0.513  -3.084   2.514
  -0.205  -3.203   2.514
   0.120  -3.264   2.514
   0.450  -3.264   2.514
   0.775  -3.203   2.514
   1.083  -3.084   2.514
   1.363  -2.910   2.514
   1.607  -2.688   2.514
   1.806  -2.424   2.514
   1.954  -2.128   2.514
   2.044  -1.811   2.514
   2.314  -1.482   2.299
   2.288  -1.156   2.299
   2.210  -0.839   2.299
  -1.738  -1.645   2.299
  -1.685  -1.968   2.299
  -1.582  -2.277   2.299
  -1.430  -2.567   2.299
  -1.234  -2.828   2.299
  -0.998  -3.054   2.299
  -0.730  -3.240   2.299
  -0.435  -3.380   2.299
  -0.121  -3.470   2.299
   0.203  -3.510   2.299
   0.530  -3.497   2.299
   0.850  -3.431   2.299
   1.155  -3.315   2.299
   1.438  -3.152   2.299
   1.691  -2.946   2.299
   1.907  -2.701   2.299
   2.082  -2.425   2.299
   2.210  -2.125   2.299
   2.288  -1.808   2.299
   2.529  -1.482   2.059
   2.505  -1.155   2.059
   2.434  -0.836   2.059
  -1.905  -1.970   2.059
  -1.811  -2.284   2.059
  -1.672  -2.580   2.059
  -1.491  -2.853   2.059
  -1.272  -3.097   2.059
  -1.021  -3.307   2.059
  -0.741  -3.478   2.059
  -0.440  -3.606   2.059
  -0.123  -3.689   2.059
   0.203  -3.724   2.059
   0.530  -3.712   2.059
   0.853  -3.653   2.059
   1.163  -3.547   2.059
   1.454  -3.397   2.059
   1.720  -3.207   2.059
   1.956  -2.979   2.059
   2.156  -2.720   2.059
   2.317  -2.434   2.059
   2.434  -2.128   2.059
   2.505  -1.809   2.059
   2.715  -1.482   1.797
   2.693  -1.158   1.797
   2.629  -0.840   1.797
  -2.096  -1.966   1.797
  -2.011  -2.279   1.797
  -1.884  -2.578   1.797
  -1.718  -2.857   1.797
  -1.517  -3.112   1.797
  -1.284  -3.338   1.797
  -1.023  -3.530   1.797
  -0.738  -3.686   1.797
  -0.435  -3.803   1.797
  -0.119  -3.878   1.797
   0.204  -3.911   1.797
   0.528  -3.900   1.797
   0.848  -3.846   1.797
   1.158  -3.750   1.797
   1.453  -3.613   1.797
   1.726  -3.438   1.797
   1.974  -3.229   1.797
   2.192  -2.988   1.797
   2.376  -2.720   1.797
   2.522  -2.431   1.797
   2.629  -2.124   1.797
   2.693  -1.806   1.797
   2.871  -1.482   1.515
   2.850  -1.158   1.515
   2.790  -0.839   1.515
  -2.220  -2.125   1.515
  -2.119  -2.434   1.515
  -1.981  -2.728   1.515
  -1.807  -3.002   1.515
  -1.600  -3.252   1.515
  -1.363  -3.474   1.515
  -1.101  -3.665   1.515
  -0.816  -3.822   1.515
  -0.514  -3.941   1.515
  -0.200  -4.022   1.515
   0.123  -4.063   1.515
   0.447  -4.063   1.515
   0.770  -4.022   1.515
   1.084  -3.941   1.515
   1.386  -3.822   1.515
   1.671  -3.665   1.515
   1.933  -3.474   1.515
   2.170  -3.252   1.515
   2.377  -3.002   1.515
   2.551  -2.728   1.515
   2.689  -2.434   1.515
   2.790  -2.125   1.515
   2.850  -1.806   1.515
   2.994  -1.482   1.218
   2.974  -1.155   1.218
   2.915  -0.834   1.218
  -2.345  -2.130   1.218
  -2.248  -2.443   1.218
  -2.114  -2.741   1.218
  -1.944  -3.021   1.218
  -1.743  -3.278   1.218
  -1.511  -3.510   1.218
  -1.254  -3.711   1.218
  -0.974  -3.881   1.218
  -0.676  -4.015   1.218
  -0.363  -4.112   1.218
  -0.042  -4.171   1.218
   0.285  -4.191   1.218
   0.612  -4.171   1.218
   0.933  -4.112   1.218
   1.246  -4.015   1.218
   1.544  -3.881   1.218
   1.824  -3.711   1.218
   2.081  -3.510   1.218
   2.313  -3.278   1.218
   2.514  -3.021   1.218
   2.684  -2.741   1.218
   2.818  -2.443   1.218
   2.915  -2.130   1.218
   2.974  -1.809   1.218
   3.083  -1.482   0.909
   3.064  -1.157   0.909
   3.008  -0.837   0.909
  -2.344  -2.439   0.909
  -2.215  -2.738   0.909
  -2.053  -3.020   0.909
  -1.858  -3.281   0.909
  -1.635  -3.517   0.909
  -1.386  -3.726   0.909
  -1.114  -3.905   0.909
  -0.823  -4.051   0.909
  -0.517  -4.162   0.909
  -0.201  -4.238   0.909
   0.122  -4.275   0.909
   0.448  -4.275   0.909
   0.771  -4.238   0.909
   1.087  -4.162   0.909
   1.393  -4.051   0.909
   1.684  -3.905   0.909
   1.956  -3.726   0.909
   2.205  -3.517   0.909
   2.428  -3.281   0.909
   2.623  -3.020   0.909
   2.785  -2.738   0.909
   2.914  -2.439   0.909
   3.008  -2.127   0.909
   3.064  -1.807   0.909
   3.137  -1.482   0.591
   3.118  -1.157   0.591
  -2.342  -2.592   0.591
  -2.198  -2.884   0.591
  -2.022  -3.158   0.591
  -1.816  -3.410   0.591
  -1.583  -3.637   0.591
  -1.325  -3.836   0.591
  -1.046  -4.004   0.591
  -0.750  -4.140   0.591
  -0.440  -4.240   0.591
  -0.121  -4.305   0.591
   0.204  -4.333   0.591
   0.529  -4.323   0.591
   0.851  -4.277   0.591
   1.166  -4.194   0.591
   1.470  -4.076   0.591
   1.758  -3.924   0.591
   2.027  -3.740   0.591
   2.273  -3.527   0.591
   2.493  -3.287   0.591
   2.684  -3.024   0.591
   2.844  -2.740   0.591
   2.971  -2.440   0.591
   3.063  -2.128   0.591
   3.118  -1.807   0.591
   3.155  -1.482   0.270
   3.137  -1.161   0.270
  -2.301  -2.727   0.270
  -2.145  -3.009   0.270
  -1.959  -3.271   0.270
  -1.744  -3.511   0.270
  -1.504  -3.726   0.270
  -1.242  -3.912   0.270
  -0.960  -4.068   0.270
  -0.663  -4.191   0.270
  -0.354  -4.280   0.270
  -0.036  -4.334   0.270
   0.285  -4.352   0.270
   0.606  -4.334   0.270
   0.924  -4.280   0.270
   1.233  -4.191   0.270
   1.530  -4.068   0.270
   1.812  -3.912   0.270
   2.074  -3.726   0.270
   2.314  -3.511   0.270
   2.529  -3.271   0.270
   2.715  -3.009   0.270
   2.871  -2.727   0.270
   2.994  -2.430   0.270
   3.083  -2.121   0.270
   3.137  -1.803   0.270
   3.137  -1.482  -0.051
   3.118  -1.157  -0.051
  -2.198  -2.884  -0.051
  -2.022  -3.158  -0.051
  -1.816  -3.410  -0.051
  -1.583  -3.637  -0.051
  -1.325  -3.836  -0.051
  -1.046  -4.004  -0.051
  -0.750  -4.140  -0.051
  -0.440  -4.240  -0.051
  -0.121  -4.305  -0.051
   0.204  -4.333  -0.051
   0.529  -4.323  -0.051
   0.851  -4.277  -0.051
   1.166  -4.194  -0.051
   1.470  -4.076  -0.051
   1.758  -3.924  -0.051
   2.027  -3.740  -0.051
   2.273  -3.527  -0.051
   2.493  -3.287  -0.051
   2.684  -3.024  -0.051
   2.844  -2.740  -0.051
   2.971  -2.440  -0.051
   3.063  -2.128  -0.051
   3.118  -1.807  -0.051
   3.083  -1.482  -0.369
   3.064  -1.157  -0.369
  -2.053  -3.020  -0.369
  -1.858  -3.281  -0.369
  -1.635  -3.517  -0.369
  -1.386  -3.726  -0.369
  -1.114  -3.905  -0.369
  -0.823  -4.051  -0.369
  -0.517  -4.162  -0.369
  -0.201  -4.238  -0.369
   0.122  -4.275  -0.369
   0.448  -4.275  -0.369
   0.771  -4.238  -0.369
   1.087  -4.162  -0.369
   1.393  -4.051  -0.369
   1.684  -3.905  -0.369
   1.956  -3.726  -0.369
   2.205  -3.517  -0.369
   2.428  -3.281  -0.369
   2.623  -3.020  -0.369
   2.785  -2.738  -0.369
   2.914  -2.439  -0.369
   3.008  -2.127  -0.369
   3.064  -1.807  -0.369
   2.994  -1.482  -0.678
  -1.944  -3.021  -0.678
  -1.743  -3.278  -0.678
  -1.511  -3.510  -0.678
  -1.254  -3.711  -0.678
  -0.974  -3.881  -0.678
  -0.676  -4.015  -0.678
  -0.363  -4.112  -0.678
  -0.042  -4.171  -0.678
   0.285  -4.191  -0.678
   0.612  -4.171  -0.678
   0.933  -4.112  -0.678
   1.246  -4.015  -0.678
   1.544  -3.881  -0.678
   1.824  -3.711  -0.678
   2.081  -3.510  -0.678
   2.313  -3.278  -0.678
   2.514  -3.021  -0.678
   2.684  -2.741  -0.678
   2.818  -2.443  -0.678
   2.915  -2.130  -0.678
   2.974  -1.809  -0.678
   2.871  -1.482  -0.975
  -1.807  -3.002  -0.975
  -1.600  -3.252  -0.975
  -1.363  -3.474  -0.975
  -1.101  -3.665  -0.975
  -0.816  -3.822  -0.975
  -0.514  -3.941  -0.975
  -0.200  -4.022  -0.975
   0.123  -4.063  -0.975
   0.447  -4.063  -0.975
   0.770  -4.022  -0.975
   1.084  -3.941  -0.975
   1.386  -3.822  -0.975
   1.671  -3.665  -0.975
   1.933  -3.474  -0.975
   2.170  -3.252  -0.975
   2.377  -3.002  -0.975
   2.551  -2.728  -0.975
   2.689  -2.434  -0.975
   2.790  -2.125  -0.975
   2.850  -1.806  -0.975
  -1.517  -3.112  -1.257
  -1.284  -3.338  -1.257
  -1.023  -3.530  -1.257
  -0.738  -3.686  -1.257
  -0.435  -3.803  -1.257
  -0.119  -3.878  -1.257
   0.204  -3.911  -1.257
   0.528  -3.900  -1.257
   0.848  -3.846  -1.257
   1.158  -3.750  -1.257
   1.453  -3.613  -1.257
   1.726  -3.438  -1.257
   1.974  -3.229  -1.257
   2.192  -2.988  -1.257
   2.376  -2.720  -1.257
   2.522  -2.431  -1.257
   2.629  -2.124  -1.257
   2.693  -1.806  -1.257
  -1.491  -2.853  -1.519
  -1.272  -3.097  -1.519
  -1.021  -3.307  -1.519
  -0.741  -3.478  -1.519
  -0.440  -3.606  -1.519
  -0.123  -3.689  -1.519
   0.203  -3.724  -1.519
   0.530  -3.712  -1.519
   0.853  -3.653  -1.519
   1.163  -3.547  -1.519
   1.454  -3.397  -1.519
   1.720  -3.207  -1.519
   1.956  -2.979  -1.519
   2.156  -2.720  -1.519
   2.317  -2.434  -1.519
   2.434  -2.128  -1.519
   2.505  -1.809  -1.519
  -1.234  -2.828  -1.759
  -0.998  -3.054  -1.759
  -0.730  -3.240  -1.759
  -0.435  -3.380  -1.759
  -0.121  -3.470  -1.759
   0.203  -3.510  -1.759
   0.530  -3.497  -1.759
   0.850  -3.431  -1.759
   1.155  -3.315  -1.759
   1.438  -3.152  -1.759
   1.691  -2.946  -1.759
   1.907  -2.701  -1.759
   2.082  -2.425  -1.759
   2.210  -2.125  -1.759
   2.288  -1.808  -1.759
  -1.037  -2.688  -1.974
  -0.793  -2.910  -1.974
  -0.513  -3.084  -1.974
  -0.205  -3.203  -1.974
   0.120  -3.264  -1.974
   0.450  -3.264  -1.974
   0.775  -3.203  -1.974
   1.083  -3.084  -1.974
   1.363  -2.910  -1.974
   1.607  -2.688  -1.974
   1.806  -2.424  -1.974
   1.954  -2.128  -1.974
   2.044  -1.811  -1.974
  -0.824  -2.532  -2.160
  -0.572  -2.746  -2.160
  -0.280  -2.900  -2.160
   0.038  -2.989  -2.160
   0.368  -3.007  -2.160
   0.693  -2.953  -2.160
   1.000  -2.831  -2.160
   1.274  -2.646  -2.160
   1.501  -2.406  -2.160
   1.671  -2.123  -2.160
   1.776  -1.810  -2.160
  -0.596  -2.363  -2.316
  -0.338  -2.560  -2.316
  -0.037  -2.685  -2.316
   0.285  -2.727  -2.316
   0.607  -2.685  -2.316
   0.908  -2.560  -2.316
   1.166  -2.363  -2.316
   1.363  -2.105  -2.316
   1.488  -1.804  -2.316
  -0.189  -2.303  -2.439
   0.120  -2.416  -2.439
   0.450  -2.416  -2.439
   0.759  -2.303  -2.439
   1.011  -2.091  -2.439
   0.285  -2.121  -2.528
  -2.958   0.000   1.772
  -2.958  -0.322   1.772
  -2.889  -0.637   1.772
  -2.753  -0.929   1.772
  -2.559  -1.185   1.772
  -3.105   0.470   1.590
  -3.193   0.160   1.590
  -3.223  -0.161   1.590
  -3.193  -0.482   1.590
  -3.105  -0.792   1.590
  -2.961  -1.080   1.590
  -2.767  -1.337   1.590
  -2.529  -1.554   1.590
  -3.450  -0.002   1.381
  -3.450  -0.320   1.381
  -3.399  -0.635   1.381
  -3.298  -0.937   1.381
  -3.150  -1.219   1.381
  -2.959  -1.474   1.381
  -2.729  -1.695   1.381
  -2.467  -1.876   1.381
  -3.660  -0.321   1.147
  -3.614  -0.637   1.147
  -3.522  -0.943   1.147
  -3.386  -1.232   1.147
  -3.210  -1.499   1.147
  -2.996  -1.737   1.147
  -2.751  -1.941   1.147
  -2.478  -2.108   1.147
  -3.800  -0.633   0.891
  -3.717  -0.939   0.891
  -3.593  -1.230   0.891
  -3.432  -1.503   0.891
  -3.235  -1.751   0.891
  -3.008  -1.971   0.891
  -2.753  -2.159   0.891
  -2.475  -2.312   0.891
  -3.920  -0.788   0.616
  -3.823  -1.090   0.616
  -3.688  -1.376   0.616
  -3.518  -1.644   0.616
  -3.316  -1.888   0.616
  -3.085  -2.105   0.616
  -2.829  -2.291   0.616
  -2.551  -2.444   0.616
  -3.948  -1.098   0.326
  -3.817  -1.389   0.326
  -3.652  -1.662   0.326
  -3.455  -1.914   0.326
  -3.230  -2.139   0.326
  -2.978  -2.336   0.326
  -2.705  -2.501   0.326
  -2.414  -2.632   0.326
  -3.758  -1.661   0.024
  -3.568  -1.916   0.024
  -3.350  -2.147   0.024
  -3.107  -2.351   0.024
  -2.842  -2.525   0.024
  -2.558  -2.668   0.024
  -3.728  -1.796  -0.285
  -3.527  -2.042  -0.285
  -3.299  -2.264  -0.285
  -3.048  -2.458  -0.285
  -2.775  -2.622  -0.285
  -2.486  -2.754  -0.285
  -2.184  -2.852  -0.285
  -3.666  -1.907  -0.599
  -3.457  -2.141  -0.599
  -3.223  -2.350  -0.599
  -2.967  -2.532  -0.599
  -2.692  -2.684  -0.599
  -2.402  -2.804  -0.599
  -2.100  -2.891  -0.599
  -3.299  -2.264  -0.912
  -3.048  -2.458  -0.912
  -2.775  -2.622  -0.912
  -2.486  -2.754  -0.912
  -2.184  -2.852  -0.912
  -3.350  -2.147  -1.222
  -3.107  -2.351  -1.222
  -2.842  -2.525  -1.222
  -2.558  -2.668  -1.222
  -2.260  -2.776  -1.222
  -1.951  -2.849  -1.222
  -2.978  -2.336  -1.524
  -2.705  -2.501  -1.524
  -2.414  -2.632  -1.524
  -2.109  -2.727  -1.524
  -1.796  -2.785  -1.524
  -2.829  -2.291  -1.814
  -2.551  -2.444  -1.814
  -2.257  -2.560  -1.814
  -1.950  -2.639  -1.814
  -1.635  -2.679  -1.814
  -1.319  -2.679  -1.814
  -2.753  -2.159  -2.089
  -2.475  -2.312  -2.089
  -2.179  -2.425  -2.089
  -1.871  -2.499  -2.089
  -1.556  -2.531  -2.089
  -1.240  -2.520  -2.089
  -2.478  -2.108  -2.345
  -2.184  -2.233  -2.345
  -1.875  -2.314  -2.345
  -1.557  -2.349  -2.345
  -1.238  -2.337  -2.345
  -0.923  -2.279  -2.345
  -2.179  -2.012  -2.579
  -1.873  -2.101  -2.579
  -1.557  -2.139  -2.579
  -1.238  -2.126  -2.579
  -0.926  -2.063  -2.579
  -1.638  -1.899  -2.788
  -1.316  -1.899  -2.788
  -0.999  -1.840  -2.788
  -0.699  -1.724  -2.788
  -1.078  -1.596  -2.970
  -0.779  -1.477  -2.970
  -3.176   0.856   1.549
  -3.497   0.856   1.416
  -3.451   0.508   1.416
  -3.792   1.034   1.248
  -3.792   0.678   1.248
  -3.715   0.329   1.248
  -4.052   1.211   1.047
  -4.085   0.856   1.047
  -4.052   0.501   1.047
  -3.954   0.158   1.047
  -3.795  -0.161   1.047
  -4.337   1.032   0.815
  -4.337   0.680   0.815
  -4.280   0.331   0.815
  -4.169  -0.003   0.815
  -4.005  -0.316   0.815
  -4.518   1.383   0.556
  -4.569   1.033   0.556
  -4.569   0.679   0.556
  -4.518   0.329   0.556
  -4.070  -0.625   0.556
  -4.724   1.379   0.272
  -4.771   1.031   0.272
  -4.857   1.551  -0.032
  -4.888   1.894  -0.353
  -4.834   2.371  -1.030
  -4.777   2.505  -1.377
  -0.271   3.295  -1.724
  -4.422   2.939  -1.724
  -4.644   2.667  -1.724
  -4.834   2.371  -1.724
  -0.641   3.473  -2.067
  -0.955   3.631  -2.067
  -4.226   3.054  -2.067
  -4.467   2.799  -2.067
  -4.677   2.517  -2.067
  -1.452   3.697  -2.401
  -1.799   3.761  -2.401
  -3.512   3.447  -2.401
  -3.814   3.264  -2.401
  -4.092   3.046  -2.401
  -4.342   2.796  -2.401
  -4.560   2.518  -2.401
  -2.505  -2.049  -2.401
  -1.977   3.643  -2.722
  -2.327   3.643  -2.722
  -2.675   3.600  -2.722
  -3.015   3.512  -2.722
  -3.341   3.383  -2.722
  -3.649   3.214  -2.722
  -3.932   3.008  -2.722
  -4.188   2.768  -2.722
  -4.412   2.498  -2.722
  -2.327  -1.931  -2.722
  -1.977  -1.931  -2.722
  -2.240   3.479  -3.026
  -2.589   3.444  -3.026
  -2.930   3.363  -3.026
  -3.257   3.237  -3.026
  -3.564   3.068  -3.026
  -3.847   2.860  -3.026
  -4.099   2.617  -3.026
  -4.316   2.342  -3.026
  -2.240  -1.767  -3.026
  -1.889  -1.756  -3.026
  -1.544  -1.697  -3.026
  -1.209  -1.593  -3.026
  -0.891  -1.446  -3.026
  -0.595  -1.257  -3.026
  -2.592   3.239  -3.310
  -2.935   3.150  -3.310
  -3.260   3.011  -3.310
  -3.562   2.827  -3.310
  -3.834   2.601  -3.310
  -4.070   2.337  -3.310
  -4.266   2.042  -3.310
  -2.592  -1.527  -3.310
  -2.241  -1.566  -3.310
  -1.887  -1.553  -3.310
  -1.539  -1.489  -3.310
  -1.204  -1.375  -3.310
  -2.929   2.906  -3.569
  -3.248   2.754  -3.569
  -3.538   2.554  -3.569
  -3.793   2.310  -3.569
  -4.005   2.028  -3.569
  -2.590  -1.292  -3.569
  -2.240  -1.334  -3.569
  -1.888  -1.320  -3.569
  -1.542  -1.249  -3.569
  -3.014   2.586  -3.801
  -3.317   2.398  -3.801
  -3.580   2.158  -3.801
  -3.795   1.874  -3.801
  -2.681  -1.003  -3.801
  -2.330  -1.069  -3.801
  -1.974  -1.069  -3.801
  -3.349   1.990  -4.002
  -3.565   1.706  -4.002
  -3.715   1.383  -4.002
  -2.762  -0.676  -4.002
  -2.419  -0.772  -4.002
  -3.317   1.529  -4.170
  -3.451   1.204  -4.170
  -2.825  -0.309  -4.170
  -3.176   0.856  -4.303
  -3.114   0.506  -4.303
  -4.750   1.762   0.065
  -4.814   2.056  -0.215
  -4.842   2.203  -0.503
  -4.831   2.341  -0.794
  -4.775   2.490  -1.085
  -4.561   2.900  -1.373
  -4.316   3.156  -1.653
  -4.469   2.902  -1.653