 $system timlim=999888777
         mwords=100 $end
 $contrl exetyp=run
         runtyp=energy scftyp=rhf
         icharg=-1 mult=1 units=angs coord=unique
         maxit=50 ispher=1 qmttol=1d-6 icut=12 itol=22 $end
 $scf    dirscf=.t. diis=.t. soscf=.f.
         fdiff=.f. conv=1d-6
         npreo(1)=0,-1,1,9999 $end
 $elpot  iepot=1 where=points $end
 $basis  gbasis=n311 ngauss=6
         ndfunc=1 npfunc=1 diffsp=.t. diffs=.t. $end
 $DATA
TS1a_hfd_irc200_all_revmov.pdb
C1
P     15.0    -0.04100   0.01400  -0.02500 
O      8.0    -0.12500   0.51600   1.44400 
O      8.0     0.93700   0.65300  -0.88600 
F      9.0     0.29300  -1.48600   0.25000 
O      8.0    -1.47700  -0.16100  -0.59900 
C      6.0    -2.15200   0.85600  -1.37700 
H      1.0    -2.27100   1.77200  -0.80400 
H      1.0    -1.58200   1.02800  -2.28000 
H      1.0    -3.11000   0.42000  -1.62200 
C      6.0    -0.04100   1.91300   1.81200 
H      1.0    -0.12500   1.91500   2.88900 
H      1.0     0.93000   2.28600   1.51600 
H      1.0    -0.84300   2.48800   1.35400 
O      8.0    -2.29800   3.36500   0.35600 
H      1.0    -2.57000   4.26600   0.23700 
 $END
 $POINTS
ANGS 3138
  -2.291  -1.249   2.033
  -2.083  -1.563   2.033
   2.430  -0.729   2.033
   2.512  -0.362   2.033
   2.753   0.014   1.731
   2.728   0.386   1.731
  -2.345  -1.567   1.731
   2.654  -0.724   1.731
   2.728  -0.358   1.731
   2.932   0.014   1.407
   2.909   0.387   1.407
   2.839  -0.725   1.407
   2.909  -0.359   1.407
   3.074   0.014   1.065
   3.051   0.389   1.065
   2.983  -0.731   1.065
   3.051  -0.361   1.065
   3.176   0.014   0.709
   3.090  -0.728   0.709
   3.155  -0.360   0.709
   3.153  -0.729   0.344
   1.575  -1.669  -2.358
  -0.604  -1.965  -2.605
  -0.231  -2.035  -2.605
   0.149  -2.035  -2.605
   0.522  -1.965  -2.605
   0.876  -1.828  -2.605
   1.199  -1.628  -2.605
  -0.325  -1.719  -2.819
   0.054  -1.739  -2.819
   0.429  -1.678  -2.819
   0.781  -1.537  -2.819
  -0.412  -1.369  -2.998
  -0.041  -1.418  -2.998
   0.330  -1.369  -2.998
   0.675  -1.226  -2.998
  -0.230  -1.059  -3.140
   0.148  -1.059  -3.140
  -0.286  -0.395   4.087
   0.036  -0.395   4.087
  -0.984  -0.343   3.967
  -0.732  -0.536   3.967
  -0.439  -0.657   3.967
  -0.125  -0.699   3.967
   0.189  -0.657   3.967
   0.482  -0.536   3.967
   0.734  -0.343   3.967
  -1.401  -0.252   3.815
  -1.207  -0.508   3.815
  -0.961  -0.717   3.815
  -0.676  -0.868   3.815
  -0.366  -0.954   3.815
  -0.044  -0.972   3.815
   0.274  -0.919   3.815
   0.573  -0.800   3.815
   0.839  -0.619   3.815
   1.061  -0.386   3.815
   1.227  -0.110   3.815
  -1.753  -0.115   3.633
  -1.609  -0.403   3.633
  -1.415  -0.660   3.633
  -1.177  -0.877   3.633
  -0.903  -1.047   3.633
  -0.603  -1.163   3.633
  -0.286  -1.222   3.633
   0.036  -1.222   3.633
   0.353  -1.163   3.633
   0.653  -1.047   3.633
   0.927  -0.877   3.633
   1.165  -0.660   3.633
   1.359  -0.403   3.633
   1.503  -0.115   3.633
  -2.047   0.042   3.424
  -1.946  -0.260   3.424
  -1.798  -0.542   3.424
  -1.607  -0.797   3.424
  -1.377  -1.018   3.424
  -1.115  -1.199   3.424
  -0.827  -1.335   3.424
  -0.521  -1.424   3.424
  -0.205  -1.462   3.424
   0.114  -1.449   3.424
   0.426  -1.386   3.424
   0.724  -1.273   3.424
   1.000  -1.113   3.424
   1.247  -0.912   3.424
   1.458  -0.673   3.424
   1.628  -0.404   3.424
   1.753  -0.111   3.424
  -2.262   0.040   3.190
  -2.170  -0.266   3.190
  -2.034  -0.555   3.190
  -1.858  -0.822   3.190
  -1.644  -1.060   3.190
  -1.399  -1.264   3.190
  -1.126  -1.431   3.190
  -0.832  -1.556   3.190
  -0.523  -1.637   3.190
  -0.205  -1.672   3.190
   0.114  -1.660   3.190
   0.429  -1.602   3.190
   0.731  -1.499   3.190
   1.015  -1.353   3.190
   1.275  -1.167   3.190
   1.505  -0.945   3.190
   1.701  -0.692   3.190
   1.857  -0.413   3.190
   1.971  -0.115   3.190
  -2.491   0.358   2.934
  -2.448   0.044   2.934
  -2.365  -0.262   2.934
  -2.241  -0.553   2.934
  -2.080  -0.826   2.934
  -1.883  -1.074   2.934
  -1.656  -1.294   2.934
  -1.401  -1.482   2.934
  -1.123  -1.635   2.934
  -0.827  -1.748   2.934
   1.523  -1.188   2.934
   1.736  -0.953   2.934
   1.915  -0.692   2.934
   2.058  -0.410   2.934
   2.162  -0.110   2.934
  -2.628   0.200   2.659
  -2.568  -0.111   2.659
  -2.471  -0.413   2.659
  -2.336  -0.699   2.659
  -2.166  -0.967   2.659
  -1.964  -1.211   2.659
  -1.733  -1.428   2.659
  -1.477  -1.614   2.659
   1.916  -0.967   2.659
   2.086  -0.699   2.659
   2.221  -0.413   2.659
   2.318  -0.111   2.659
  -2.768   0.516   2.369
  -2.749   0.197   2.369
  -2.691  -0.116   2.369
  -2.596  -0.421   2.369
  -2.465  -0.712   2.369
  -2.300  -0.985   2.369
  -2.103  -1.237   2.369
  -1.878  -1.462   2.369
   2.215  -0.712   2.369
   2.346  -0.421   2.369
   2.441  -0.116   2.369
   2.499   0.197   2.369
  -2.855   0.516   2.067
  -2.836   0.199   2.067
  -2.781  -0.114   2.067
  -2.690  -0.418   2.067
  -2.564  -0.709   2.067
  -2.406  -0.984   2.067
   2.531  -0.114   2.067
   2.586   0.199   2.067
  -2.903   0.675   1.758
  -2.903   0.357   1.758
   3.126   0.653   0.860
   3.103   0.972   0.860
   3.308   0.653   0.604
   3.287   0.969   0.604
   3.224   1.279   0.604
   3.224   0.027   0.604
   3.287   0.337   0.604
   3.460   0.653   0.329
   3.440   0.969   0.329
   3.380   1.280   0.329
   3.283   1.582   0.329
   3.283  -0.276   0.329
   3.380   0.026   0.329
   3.440   0.337   0.329
   3.580   0.653   0.039
   3.561   0.972   0.039
   3.503   1.285   0.039
   3.408   1.590   0.039
   3.277   1.881   0.039
   3.112   2.154   0.039
   3.277  -0.575   0.039
   3.408  -0.284   0.039
   3.503   0.021   0.039
   3.561   0.334   0.039
   3.667   0.653  -0.263
   3.648   0.970  -0.263
   3.593   1.283  -0.263
   3.502   1.587  -0.263
   3.376   1.878  -0.263
   3.218   2.153  -0.263
   3.028   2.408  -0.263
   2.810   2.639  -0.263
   3.218  -0.847  -0.263
   3.376  -0.572  -0.263
   3.502  -0.281  -0.263
   3.593   0.023  -0.263
   3.648   0.336  -0.263
   3.719   0.653  -0.572
   3.701   0.970  -0.572
   3.647   1.283  -0.572
   3.558   1.588  -0.572
   3.434   1.881  -0.572
   3.278   2.157  -0.572
   3.091   2.414  -0.572
   2.876   2.648  -0.572
   2.636   2.856  -0.572
   2.374   3.036  -0.572
   3.091  -1.108  -0.572
   3.278  -0.851  -0.572
   3.434  -0.575  -0.572
   3.558  -0.282  -0.572
   3.647   0.023  -0.572
   3.701   0.336  -0.572
   3.737   0.653  -0.886
   3.719   0.967  -0.886
   3.667   1.276  -0.886
   3.580   1.578  -0.886
   3.460   1.868  -0.886
   3.308   2.143  -0.886
   3.126   2.399  -0.886
   2.917   2.633  -0.886
   2.683   2.842  -0.886
   2.427   3.024  -0.886
   2.152   3.176  -0.886
   1.862   3.296  -0.886
   1.560   3.383  -0.886
   1.251   3.435  -0.886
   0.937   3.453  -0.886
   0.624   3.435  -0.886
   3.126  -1.093  -0.886
   3.308  -0.837  -0.886
   3.460  -0.562  -0.886
   3.580  -0.272  -0.886
   3.667   0.030  -0.886
   3.719   0.339  -0.886
   3.719   0.653  -1.199
   3.701   0.970  -1.199
   3.647   1.283  -1.199
   3.558   1.588  -1.199
   3.434   1.881  -1.199
   3.278   2.157  -1.199
   3.091   2.414  -1.199
   2.876   2.648  -1.199
   2.636   2.856  -1.199
   2.374   3.036  -1.199
   2.093   3.184  -1.199
   1.797   3.299  -1.199
   1.490   3.380  -1.199
   1.175   3.425  -1.199
   0.858   3.434  -1.199
   0.541   3.407  -1.199
   0.230   3.344  -1.199
   2.876  -1.342  -1.199
   3.091  -1.108  -1.199
   3.278  -0.851  -1.199
   3.434  -0.575  -1.199
   3.558  -0.282  -1.199
   3.647   0.023  -1.199
   3.701   0.336  -1.199
   3.667   0.653  -1.509
   3.648   0.970  -1.509
   3.593   1.283  -1.509
   3.502   1.587  -1.509
   3.376   1.878  -1.509
   3.218   2.153  -1.509
   3.028   2.408  -1.509
   2.810   2.639  -1.509
   2.567   2.843  -1.509
   2.302   3.017  -1.509
   2.018   3.160  -1.509
   1.720   3.268  -1.509
   1.411   3.341  -1.509
   1.096   3.378  -1.509
   0.778   3.378  -1.509
   0.463   3.341  -1.509
   0.154   3.268  -1.509
   2.567  -1.537  -1.509
   2.810  -1.333  -1.509
   3.028  -1.102  -1.509
   3.218  -0.847  -1.509
   3.376  -0.572  -1.509
   3.502  -0.281  -1.509
   3.593   0.023  -1.509
   3.648   0.336  -1.509
   3.580   0.653  -1.811
   3.561   0.972  -1.811
   3.503   1.285  -1.811
   3.408   1.590  -1.811
   3.277   1.881  -1.811
   3.112   2.154  -1.811
   2.915   2.406  -1.811
   2.690   2.631  -1.811
   2.438   2.828  -1.811
   2.165   2.993  -1.811
   1.874   3.124  -1.811
   1.569   3.219  -1.811
   1.256   3.277  -1.811
   0.937   3.296  -1.811
   0.618   3.277  -1.811
   0.305   3.219  -1.811
   0.000   3.124  -1.811
   2.438  -1.522  -1.811
   2.690  -1.325  -1.811
   2.915  -1.100  -1.811
   3.112  -0.848  -1.811
   3.277  -0.575  -1.811
   3.408  -0.284  -1.811
   3.503   0.021  -1.811
   3.561   0.334  -1.811
   3.460   0.653  -2.101
   3.440   0.969  -2.101
   3.380   1.280  -2.101
   3.283   1.582  -2.101
   3.148   1.868  -2.101
   2.978   2.136  -2.101
   2.776   2.380  -2.101
   2.545   2.597  -2.101
   2.289   2.783  -2.101
   2.011   2.936  -2.101
   1.717   3.052  -2.101
   1.410   3.131  -2.101
   1.095   3.171  -2.101
   0.779   3.171  -2.101
   0.464   3.131  -2.101
   0.157   3.052  -2.101
   2.011  -1.630  -2.101
   2.289  -1.477  -2.101
   2.545  -1.291  -2.101
   2.776  -1.074  -2.101
   2.978  -0.830  -2.101
   3.148  -0.562  -2.101
   3.283  -0.276  -2.101
   3.380   0.026  -2.101
   3.440   0.337  -2.101
   3.308   0.653  -2.376
   3.287   0.969  -2.376
   3.224   1.279  -2.376
   3.120   1.579  -2.376
   2.977   1.861  -2.376
   2.798   2.122  -2.376
   2.585   2.357  -2.376
   2.343   2.562  -2.376
   2.076   2.732  -2.376
   1.789   2.865  -2.376
   1.487   2.959  -2.376
   1.174   3.012  -2.376
   0.858   3.023  -2.376
   0.543   2.991  -2.376
   0.235   2.917  -2.376
   1.789  -1.559  -2.376
   2.076  -1.426  -2.376
   2.343  -1.256  -2.376
   2.585  -1.051  -2.376
   2.798  -0.816  -2.376
   2.977  -0.555  -2.376
   3.120  -0.273  -2.376
   3.224   0.027  -2.376
   3.287   0.337  -2.376
   3.126   0.653  -2.632
   3.103   0.972  -2.632
   3.033   1.284  -2.632
   2.919   1.582  -2.632
   2.763   1.861  -2.632
   2.567   2.114  -2.632
   2.337   2.336  -2.632
   2.077   2.522  -2.632
   1.793   2.668  -2.632
   1.491   2.771  -2.632
   1.176   2.829  -2.632
   0.857   2.841  -2.632
   0.539   2.806  -2.632
   1.491  -1.465  -2.632
   1.793  -1.362  -2.632
   2.077  -1.216  -2.632
   2.337  -1.030  -2.632
   2.567  -0.808  -2.632
   2.763  -0.555  -2.632
   2.919  -0.276  -2.632
   3.033   0.022  -2.632
   3.103   0.334  -2.632
   2.917   0.653  -2.866
   2.891   0.971  -2.866
   2.815   1.280  -2.866
   2.690   1.573  -2.866
   2.520   1.842  -2.866
   2.309   2.081  -2.866
   2.062   2.282  -2.866
   1.786   2.442  -2.866
   1.488   2.555  -2.866
   1.176   2.618  -2.866
   0.857   2.631  -2.866
   0.541   2.593  -2.866
   1.176  -1.312  -2.866
   1.488  -1.249  -2.866
   1.786  -1.136  -2.866
   2.062  -0.976  -2.866
   2.309  -0.775  -2.866
   2.520  -0.536  -2.866
   2.690  -0.267  -2.866
   2.815   0.026  -2.866
   2.891   0.335  -2.866
   2.683   0.653  -3.075
   2.653   0.974  -3.075
   2.565   1.284  -3.075
   2.421   1.572  -3.075
   2.227   1.829  -3.075
   1.989   2.046  -3.075
   1.715   2.216  -3.075
   1.415   2.332  -3.075
   1.098   2.391  -3.075
   0.776   2.391  -3.075
   0.776  -1.085  -3.075
   1.098  -1.085  -3.075
   1.415  -1.026  -3.075
   1.715  -0.910  -3.075
   1.989  -0.740  -3.075
   2.227  -0.523  -3.075
   2.421  -0.266  -3.075
   2.565   0.022  -3.075
   2.653   0.332  -3.075
   2.427   0.653  -3.257
   2.392   0.973  -3.257
   2.289   1.279  -3.257
   2.123   1.555  -3.257
   1.901   1.788  -3.257
   1.635   1.969  -3.257
   1.336   2.088  -3.257
   1.018   2.141  -3.257
   0.696   2.123  -3.257
   0.386  -0.731  -3.257
   0.696  -0.817  -3.257
   1.018  -0.835  -3.257
   1.336  -0.782  -3.257
   1.635  -0.663  -3.257
   1.901  -0.482  -3.257
   2.123  -0.249  -3.257
   2.289   0.027  -3.257
   2.392   0.333  -3.257
   2.152   0.653  -3.409
   2.110   0.967  -3.409
   1.989   1.260  -3.409
   1.796   1.512  -3.409
   1.544   1.705  -3.409
   1.251   1.826  -3.409
   0.937   1.868  -3.409
   0.623   1.826  -3.409
   0.330  -0.399  -3.409
   0.623  -0.520  -3.409
   0.937  -0.562  -3.409
   1.251  -0.520  -3.409
   1.544  -0.399  -3.409
   1.796  -0.206  -3.409
   1.989   0.046  -3.409
   2.110   0.339  -3.409
   1.862   0.653  -3.529
   1.806   0.969  -3.529
   1.645   1.247  -3.529
   1.399   1.454  -3.529
   1.098   1.564  -3.529
   0.776   1.564  -3.529
   0.475  -0.148  -3.529
   0.776  -0.258  -3.529
   1.098  -0.258  -3.529
   1.399  -0.148  -3.529
   1.645   0.059  -3.529
   1.806   0.337  -3.529
   1.560   0.653  -3.616
   1.477   0.965  -3.616
   1.249   1.193  -3.616
   0.937   1.276  -3.616
   0.625   0.113  -3.616
   0.937   0.030  -3.616
   1.249   0.113  -3.616
   1.477   0.341  -3.616
   1.251   0.653  -3.668
   1.094   0.925  -3.668
   0.780   0.925  -3.668
   0.623   0.653  -3.668
   0.780   0.381  -3.668
   1.094   0.381  -3.668
   0.937   0.653  -3.686
   0.132  -1.764   3.102
   0.454  -1.764   3.102
  -0.260  -1.805   3.048
  -0.026  -2.039   3.048
   0.293  -2.125   3.048
   0.612  -2.039   3.048
   0.846  -1.805   3.048
   1.241  -1.486   2.959
  -0.598  -1.810   2.959
  -0.433  -2.095   2.959
  -0.181  -2.307   2.959
   0.128  -2.419   2.959
   0.458  -2.419   2.959
   0.767  -2.307   2.959
   1.019  -2.095   2.959
   1.184  -1.810   2.959
   1.538  -1.486   2.836
  -0.910  -1.808   2.836
  -0.785  -2.109   2.836
  -0.588  -2.367   2.836
  -0.330  -2.564   2.836
  -0.029  -2.689   2.836
   0.293  -2.731   2.836
   0.615  -2.689   2.836
   0.916  -2.564   2.836
   1.174  -2.367   2.836
   1.371  -2.109   2.836
   1.496  -1.808   2.836
   1.820  -1.486   2.680
   1.784  -1.158   2.680
  -1.154  -1.974   2.680
  -1.015  -2.273   2.680
  -0.816  -2.536   2.680
  -0.564  -2.750   2.680
  -0.272  -2.904   2.680
   0.046  -2.993   2.680
   0.376  -3.011   2.680
   0.701  -2.957   2.680
   1.008  -2.835   2.680
   1.282  -2.650   2.680
   1.509  -2.410   2.680
   1.679  -2.127   2.680
   1.784  -1.814   2.680
   2.082  -1.486   2.494
   2.052  -1.157   2.494
  -1.466  -1.815   2.494
  -1.376  -2.132   2.494
  -1.228  -2.428   2.494
  -1.029  -2.692   2.494
  -0.785  -2.914   2.494
  -0.505  -3.088   2.494
  -0.197  -3.207   2.494
   0.128  -3.268   2.494
   0.458  -3.268   2.494
   0.783  -3.207   2.494
   1.091  -3.088   2.494
   1.371  -2.914   2.494
   1.615  -2.692   2.494
   1.814  -2.428   2.494
   1.962  -2.132   2.494
   2.052  -1.815   2.494
   2.322  -1.486   2.279
   2.296  -1.160   2.279
   2.218  -0.843   2.279
  -1.730  -1.649   2.279
  -1.677  -1.972   2.279
  -1.574  -2.281   2.279
  -1.422  -2.571   2.279
  -1.226  -2.832   2.279
  -0.990  -3.058   2.279
  -0.722  -3.244   2.279
  -0.427  -3.384   2.279
  -0.113  -3.474   2.279
   0.211  -3.514   2.279
   0.538  -3.501   2.279
   0.858  -3.435   2.279
   1.163  -3.319   2.279
   1.446  -3.156   2.279
   1.699  -2.950   2.279
   1.915  -2.705   2.279
   2.090  -2.429   2.279
   2.218  -2.129   2.279
   2.296  -1.812   2.279
   2.537  -1.486   2.039
   2.513  -1.159   2.039
   2.442  -0.840   2.039
  -1.897  -1.974   2.039
  -1.803  -2.288   2.039
  -1.664  -2.584   2.039
  -1.483  -2.857   2.039
  -1.264  -3.101   2.039
  -1.013  -3.311   2.039
  -0.733  -3.482   2.039
  -0.432  -3.610   2.039
  -0.115  -3.693   2.039
   0.211  -3.728   2.039
   0.538  -3.716   2.039
   0.861  -3.657   2.039
   1.171  -3.551   2.039
   1.462  -3.401   2.039
   1.728  -3.211   2.039
   1.964  -2.983   2.039
   2.164  -2.724   2.039
   2.325  -2.438   2.039
   2.442  -2.132   2.039
   2.513  -1.813   2.039
   2.723  -1.486   1.777
   2.701  -1.162   1.777
   2.637  -0.844   1.777
  -2.088  -1.970   1.777
  -2.003  -2.283   1.777
  -1.876  -2.582   1.777
  -1.710  -2.861   1.777
  -1.509  -3.116   1.777
  -1.276  -3.342   1.777
  -1.015  -3.534   1.777
  -0.730  -3.690   1.777
  -0.427  -3.807   1.777
  -0.111  -3.882   1.777
   0.212  -3.915   1.777
   0.536  -3.904   1.777
   0.856  -3.850   1.777
   1.166  -3.754   1.777
   1.461  -3.617   1.777
   1.734  -3.442   1.777
   1.982  -3.233   1.777
   2.200  -2.992   1.777
   2.384  -2.724   1.777
   2.530  -2.435   1.777
   2.637  -2.128   1.777
   2.701  -1.810   1.777
   2.879  -1.486   1.495
   2.858  -1.162   1.495
   2.798  -0.843   1.495
  -2.212  -2.129   1.495
  -2.111  -2.438   1.495
  -1.973  -2.732   1.495
  -1.799  -3.006   1.495
  -1.592  -3.256   1.495
  -1.355  -3.478   1.495
  -1.093  -3.669   1.495
  -0.808  -3.826   1.495
  -0.506  -3.945   1.495
  -0.192  -4.026   1.495
   0.131  -4.067   1.495
   0.455  -4.067   1.495
   0.778  -4.026   1.495
   1.092  -3.945   1.495
   1.394  -3.826   1.495
   1.679  -3.669   1.495
   1.941  -3.478   1.495
   2.178  -3.256   1.495
   2.385  -3.006   1.495
   2.559  -2.732   1.495
   2.697  -2.438   1.495
   2.798  -2.129   1.495
   2.858  -1.810   1.495
   3.002  -1.486   1.198
   2.982  -1.159   1.198
   2.923  -0.838   1.198
  -2.337  -2.134   1.198
  -2.240  -2.447   1.198
  -2.106  -2.745   1.198
  -1.936  -3.025   1.198
  -1.735  -3.282   1.198
  -1.503  -3.514   1.198
  -1.246  -3.715   1.198
  -0.966  -3.885   1.198
  -0.668  -4.019   1.198
  -0.355  -4.116   1.198
  -0.034  -4.175   1.198
   0.293  -4.195   1.198
   0.620  -4.175   1.198
   0.941  -4.116   1.198
   1.254  -4.019   1.198
   1.552  -3.885   1.198
   1.832  -3.715   1.198
   2.089  -3.514   1.198
   2.321  -3.282   1.198
   2.522  -3.025   1.198
   2.692  -2.745   1.198
   2.826  -2.447   1.198
   2.923  -2.134   1.198
   2.982  -1.813   1.198
   3.091  -1.486   0.889
   3.072  -1.161   0.889
   3.016  -0.841   0.889
  -2.336  -2.443   0.889
  -2.207  -2.742   0.889
  -2.045  -3.024   0.889
  -1.850  -3.285   0.889
  -1.627  -3.521   0.889
  -1.378  -3.730   0.889
  -1.106  -3.909   0.889
  -0.815  -4.055   0.889
  -0.509  -4.166   0.889
  -0.193  -4.242   0.889
   0.130  -4.279   0.889
   0.456  -4.279   0.889
   0.779  -4.242   0.889
   1.095  -4.166   0.889
   1.401  -4.055   0.889
   1.692  -3.909   0.889
   1.964  -3.730   0.889
   2.213  -3.521   0.889
   2.436  -3.285   0.889
   2.631  -3.024   0.889
   2.793  -2.742   0.889
   2.922  -2.443   0.889
   3.016  -2.131   0.889
   3.072  -1.811   0.889
   3.145  -1.486   0.571
   3.126  -1.161   0.571
  -2.334  -2.596   0.571
  -2.190  -2.888   0.571
  -2.014  -3.162   0.571
  -1.808  -3.414   0.571
  -1.575  -3.641   0.571
  -1.317  -3.840   0.571
  -1.038  -4.008   0.571
  -0.742  -4.144   0.571
  -0.432  -4.244   0.571
  -0.113  -4.309   0.571
   0.212  -4.337   0.571
   0.537  -4.327   0.571
   0.859  -4.281   0.571
   1.174  -4.198   0.571
   1.478  -4.080   0.571
   1.766  -3.928   0.571
   2.035  -3.744   0.571
   2.281  -3.531   0.571
   2.501  -3.291   0.571
   2.692  -3.028   0.571
   2.852  -2.744   0.571
   2.979  -2.444   0.571
   3.071  -2.132   0.571
   3.126  -1.811   0.571
   3.163  -1.486   0.250
   3.145  -1.165   0.250
  -2.293  -2.731   0.250
  -2.137  -3.013   0.250
  -1.951  -3.275   0.250
  -1.736  -3.515   0.250
  -1.496  -3.730   0.250
  -1.234  -3.916   0.250
  -0.952  -4.072   0.250
  -0.655  -4.195   0.250
  -0.346  -4.284   0.250
  -0.028  -4.338   0.250
   0.293  -4.356   0.250
   0.614  -4.338   0.250
   0.932  -4.284   0.250
   1.241  -4.195   0.250
   1.538  -4.072   0.250
   1.820  -3.916   0.250
   2.082  -3.730   0.250
   2.322  -3.515   0.250
   2.537  -3.275   0.250
   2.723  -3.013   0.250
   2.879  -2.731   0.250
   3.002  -2.434   0.250
   3.091  -2.125   0.250
   3.145  -1.807   0.250
   3.145  -1.486  -0.071
   3.126  -1.161  -0.071
  -2.190  -2.888  -0.071
  -2.014  -3.162  -0.071
  -1.808  -3.414  -0.071
  -1.575  -3.641  -0.071
  -1.317  -3.840  -0.071
  -1.038  -4.008  -0.071
  -0.742  -4.144  -0.071
  -0.432  -4.244  -0.071
  -0.113  -4.309  -0.071
   0.212  -4.337  -0.071
   0.537  -4.327  -0.071
   0.859  -4.281  -0.071
   1.174  -4.198  -0.071
   1.478  -4.080  -0.071
   1.766  -3.928  -0.071
   2.035  -3.744  -0.071
   2.281  -3.531  -0.071
   2.501  -3.291  -0.071
   2.692  -3.028  -0.071
   2.852  -2.744  -0.071
   2.979  -2.444  -0.071
   3.071  -2.132  -0.071
   3.126  -1.811  -0.071
   3.091  -1.486  -0.389
   3.072  -1.161  -0.389
  -2.045  -3.024  -0.389
  -1.850  -3.285  -0.389
  -1.627  -3.521  -0.389
  -1.378  -3.730  -0.389
  -1.106  -3.909  -0.389
  -0.815  -4.055  -0.389
  -0.509  -4.166  -0.389
  -0.193  -4.242  -0.389
   0.130  -4.279  -0.389
   0.456  -4.279  -0.389
   0.779  -4.242  -0.389
   1.095  -4.167  -0.389
   1.401  -4.055  -0.389
   1.692  -3.909  -0.389
   1.964  -3.730  -0.389
   2.213  -3.521  -0.389
   2.436  -3.285  -0.389
   2.631  -3.024  -0.389
   2.793  -2.742  -0.389
   2.922  -2.443  -0.389
   3.016  -2.131  -0.389
   3.072  -1.811  -0.389
   3.002  -1.486  -0.698
  -1.936  -3.025  -0.698
  -1.735  -3.282  -0.698
  -1.503  -3.514  -0.698
  -1.246  -3.715  -0.698
  -0.966  -3.885  -0.698
  -0.668  -4.019  -0.698
  -0.355  -4.116  -0.698
  -0.034  -4.175  -0.698
   0.293  -4.195  -0.698
   0.620  -4.175  -0.698
   0.941  -4.116  -0.698
   1.254  -4.019  -0.698
   1.552  -3.885  -0.698
   1.832  -3.715  -0.698
   2.089  -3.514  -0.698
   2.321  -3.282  -0.698
   2.522  -3.025  -0.698
   2.692  -2.745  -0.698
   2.826  -2.447  -0.698
   2.923  -2.134  -0.698
   2.982  -1.813  -0.698
   2.879  -1.486  -0.995
  -1.799  -3.006  -0.995
  -1.592  -3.256  -0.995
  -1.355  -3.478  -0.995
  -1.093  -3.669  -0.995
  -0.808  -3.826  -0.995
  -0.506  -3.945  -0.995
  -0.192  -4.026  -0.995
   0.131  -4.067  -0.995
   0.455  -4.067  -0.995
   0.778  -4.026  -0.995
   1.092  -3.945  -0.995
   1.394  -3.826  -0.995
   1.679  -3.669  -0.995
   1.941  -3.478  -0.995
   2.178  -3.256  -0.995
   2.385  -3.006  -0.995
   2.559  -2.732  -0.995
   2.697  -2.438  -0.995
   2.798  -2.129  -0.995
   2.858  -1.810  -0.995
   2.723  -1.486  -1.277
  -1.509  -3.116  -1.277
  -1.276  -3.342  -1.277
  -1.015  -3.534  -1.277
  -0.730  -3.690  -1.277
  -0.427  -3.807  -1.277
  -0.111  -3.882  -1.277
   0.212  -3.915  -1.277
   0.536  -3.904  -1.277
   0.856  -3.850  -1.277
   1.166  -3.754  -1.277
   1.461  -3.617  -1.277
   1.734  -3.442  -1.277
   1.982  -3.233  -1.277
   2.200  -2.992  -1.277
   2.384  -2.724  -1.277
   2.530  -2.435  -1.277
   2.637  -2.128  -1.277
   2.701  -1.810  -1.277
  -1.483  -2.857  -1.539
  -1.264  -3.101  -1.539
  -1.013  -3.311  -1.539
  -0.733  -3.482  -1.539
  -0.432  -3.610  -1.539
  -0.115  -3.693  -1.539
   0.211  -3.728  -1.539
   0.538  -3.716  -1.539
   0.861  -3.657  -1.539
   1.171  -3.551  -1.539
   1.462  -3.401  -1.539
   1.728  -3.211  -1.539
   1.964  -2.983  -1.539
   2.164  -2.724  -1.539
   2.325  -2.438  -1.539
   2.442  -2.132  -1.539
   2.513  -1.813  -1.539
  -1.226  -2.832  -1.779
  -0.990  -3.058  -1.779
  -0.722  -3.244  -1.779
  -0.427  -3.384  -1.779
  -0.113  -3.474  -1.779
   0.211  -3.514  -1.779
   0.538  -3.501  -1.779
   0.858  -3.435  -1.779
   1.163  -3.319  -1.779
   1.446  -3.156  -1.779
   1.699  -2.950  -1.779
   1.915  -2.705  -1.779
   2.090  -2.429  -1.779
   2.218  -2.129  -1.779
   2.296  -1.812  -1.779
  -1.029  -2.692  -1.994
  -0.785  -2.914  -1.994
  -0.505  -3.088  -1.994
  -0.197  -3.207  -1.994
   0.128  -3.268  -1.994
   0.458  -3.268  -1.994
   0.783  -3.207  -1.994
   1.091  -3.088  -1.994
   1.371  -2.914  -1.994
   1.615  -2.692  -1.994
   1.814  -2.428  -1.994
   1.962  -2.132  -1.994
   2.052  -1.815  -1.994
  -0.816  -2.536  -2.180
  -0.564  -2.750  -2.180
  -0.272  -2.904  -2.180
   0.046  -2.993  -2.180
   0.376  -3.011  -2.180
   0.701  -2.957  -2.180
   1.008  -2.835  -2.180
   1.282  -2.650  -2.180
   1.509  -2.410  -2.180
   1.679  -2.127  -2.180
   1.784  -1.814  -2.180
  -0.588  -2.367  -2.336
  -0.330  -2.564  -2.336
  -0.029  -2.689  -2.336
   0.293  -2.731  -2.336
   0.615  -2.689  -2.336
   0.916  -2.564  -2.336
   1.174  -2.367  -2.336
   1.371  -2.109  -2.336
   1.496  -1.808  -2.336
  -0.181  -2.307  -2.459
   0.128  -2.420  -2.459
   0.458  -2.420  -2.459
   0.767  -2.307  -2.459
   1.019  -2.095  -2.459
   0.293  -2.125  -2.548
   0.612  -2.039  -2.548
  -2.958   0.000   1.772
  -2.958  -0.322   1.772
  -2.889  -0.637   1.772
  -2.753  -0.929   1.772
  -2.559  -1.185   1.772
  -3.105   0.470   1.590
  -3.193   0.160   1.590
  -3.223  -0.161   1.590
  -3.193  -0.482   1.590
  -3.105  -0.792   1.590
  -2.961  -1.080   1.590
  -2.767  -1.337   1.590
  -2.529  -1.554   1.590
  -3.450  -0.002   1.381
  -3.450  -0.320   1.381
  -3.399  -0.635   1.381
  -3.298  -0.937   1.381
  -3.150  -1.219   1.381
  -2.959  -1.474   1.381
  -2.729  -1.695   1.381
  -2.467  -1.876   1.381
  -3.660  -0.321   1.147
  -3.614  -0.637   1.147
  -3.522  -0.943   1.147
  -3.386  -1.232   1.147
  -3.210  -1.499   1.147
  -2.996  -1.737   1.147
  -2.751  -1.941   1.147
  -2.478  -2.108   1.147
  -3.800  -0.633   0.891
  -3.717  -0.939   0.891
  -3.593  -1.230   0.891
  -3.432  -1.503   0.891
  -3.235  -1.751   0.891
  -3.008  -1.971   0.891
  -2.753  -2.159   0.891
  -2.475  -2.312   0.891
  -3.920  -0.788   0.616
  -3.823  -1.090   0.616
  -3.688  -1.376   0.616
  -3.518  -1.644   0.616
  -3.316  -1.888   0.616
  -3.085  -2.105   0.616
  -2.829  -2.291   0.616
  -2.551  -2.444   0.616
  -3.948  -1.098   0.326
  -3.817  -1.389   0.326
  -3.652  -1.662   0.326
  -3.455  -1.914   0.326
  -3.230  -2.139   0.326
  -2.978  -2.336   0.326
  -2.705  -2.501   0.326
  -2.414  -2.632   0.326
  -3.758  -1.661   0.024
  -3.568  -1.916   0.024
  -3.350  -2.147   0.024
  -3.107  -2.351   0.024
  -2.842  -2.525   0.024
  -2.558  -2.668   0.024
  -3.728  -1.796  -0.285
  -3.527  -2.042  -0.285
  -3.299  -2.264  -0.285
  -3.048  -2.458  -0.285
  -2.775  -2.622  -0.285
  -2.486  -2.754  -0.285
  -2.184  -2.852  -0.285
  -3.666  -1.907  -0.599
  -3.457  -2.141  -0.599
  -3.223  -2.350  -0.599
  -2.967  -2.532  -0.599
  -2.692  -2.684  -0.599
  -2.402  -2.804  -0.599
  -2.100  -2.891  -0.599
  -3.299  -2.264  -0.912
  -3.048  -2.458  -0.912
  -2.775  -2.622  -0.912
  -2.486  -2.754  -0.912
  -2.184  -2.852  -0.912
  -3.350  -2.147  -1.222
  -3.107  -2.351  -1.222
  -2.842  -2.525  -1.222
  -2.558  -2.668  -1.222
  -2.260  -2.776  -1.222
  -1.951  -2.849  -1.222
  -2.978  -2.336  -1.524
  -2.705  -2.501  -1.524
  -2.414  -2.632  -1.524
  -2.109  -2.727  -1.524
  -1.796  -2.785  -1.524
  -2.829  -2.291  -1.814
  -2.551  -2.444  -1.814
  -2.257  -2.560  -1.814
  -1.950  -2.639  -1.814
  -1.635  -2.679  -1.814
  -1.319  -2.679  -1.814
  -2.753  -2.159  -2.089
  -2.475  -2.312  -2.089
  -2.179  -2.425  -2.089
  -1.871  -2.499  -2.089
  -1.556  -2.531  -2.089
  -1.240  -2.520  -2.089
  -2.478  -2.108  -2.345
  -2.184  -2.233  -2.345
  -1.875  -2.314  -2.345
  -1.557  -2.349  -2.345
  -1.238  -2.337  -2.345
  -0.923  -2.279  -2.345
  -2.179  -2.012  -2.579
  -1.873  -2.101  -2.579
  -1.557  -2.139  -2.579
  -1.238  -2.126  -2.579
  -0.926  -2.063  -2.579
  -1.638  -1.899  -2.788
  -1.316  -1.899  -2.788
  -0.999  -1.840  -2.788
  -0.699  -1.724  -2.788
  -1.078  -1.596  -2.970
  -0.779  -1.477  -2.970
  -3.176   0.856   1.549
  -3.497   0.856   1.416
  -3.451   0.508   1.416
  -3.792   1.034   1.248
  -3.792   0.678   1.248
  -3.715   0.329   1.248
  -4.052   1.211   1.047
  -4.085   0.856   1.047
  -4.052   0.501   1.047
  -3.954   0.158   1.047
  -3.795  -0.161   1.047
  -4.280   1.381   0.815
  -4.337   1.032   0.815
  -4.337   0.680   0.815
  -4.280   0.331   0.815
  -4.169  -0.003   0.815
  -4.005  -0.316   0.815
  -4.518   1.383   0.556
  -4.569   1.033   0.556
  -4.569   0.679   0.556
  -4.724   1.379   0.272
  -4.857   1.551  -0.032
  -4.888   1.894  -0.353
  -4.853   2.212  -0.687
  -4.834   2.371  -1.030
  -4.777   2.505  -1.377
  -0.271   3.295  -1.724
  -4.422   2.939  -1.724
  -4.644   2.667  -1.724
  -4.834   2.371  -1.724
  -0.641   3.473  -2.067
  -4.226   3.054  -2.067
  -4.467   2.799  -2.067
  -4.677   2.517  -2.067
  -1.114   3.592  -2.401
  -1.452   3.697  -2.401
  -3.512   3.447  -2.401
  -3.814   3.264  -2.401
  -4.092   3.046  -2.401
  -4.342   2.796  -2.401
  -4.560   2.518  -2.401
  -2.505  -2.049  -2.401
  -1.629   3.600  -2.722
  -1.977   3.643  -2.722
  -2.327   3.643  -2.722
  -2.675   3.600  -2.722
  -3.015   3.512  -2.722
  -3.341   3.383  -2.722
  -3.649   3.214  -2.722
  -3.932   3.008  -2.722
  -4.188   2.768  -2.722
  -4.412   2.498  -2.722
  -2.327  -1.931  -2.722
  -1.977  -1.931  -2.722
  -2.240   3.479  -3.026
  -2.589   3.444  -3.026
  -2.930   3.363  -3.026
  -3.257   3.237  -3.026
  -3.564   3.068  -3.026
  -3.847   2.860  -3.026
  -4.099   2.617  -3.026
  -4.316   2.342  -3.026
  -2.589  -1.732  -3.026
  -2.240  -1.767  -3.026
  -1.889  -1.756  -3.026
  -1.544  -1.697  -3.026
  -1.209  -1.593  -3.026
  -0.891  -1.446  -3.026
  -2.592   3.239  -3.310
  -2.935   3.150  -3.310
  -3.260   3.011  -3.310
  -3.562   2.827  -3.310
  -3.834   2.601  -3.310
  -4.070   2.337  -3.310
  -4.266   2.042  -3.310
  -2.592  -1.527  -3.310
  -2.241  -1.566  -3.310
  -1.887  -1.553  -3.310
  -1.539  -1.489  -3.310
  -1.204  -1.375  -3.310
  -2.929   2.906  -3.569
  -3.248   2.754  -3.569
  -3.538   2.554  -3.569
  -3.793   2.310  -3.569
  -4.005   2.028  -3.569
  -2.590  -1.292  -3.569
  -2.240  -1.334  -3.569
  -1.888  -1.320  -3.569
  -1.542  -1.249  -3.569
  -3.014   2.586  -3.801
  -3.317   2.398  -3.801
  -3.580   2.158  -3.801
  -3.795   1.874  -3.801
  -2.681  -1.003  -3.801
  -2.330  -1.069  -3.801
  -1.974  -1.069  -3.801
  -3.349   1.990  -4.002
  -3.565   1.706  -4.002
  -3.715   1.383  -4.002
  -2.762  -0.676  -4.002
  -2.419  -0.772  -4.002
  -3.317   1.529  -4.170
  -3.451   1.204  -4.170
  -3.497   0.856  -4.170
  -2.825  -0.309  -4.170
  -4.614   1.772   0.324
  -4.789   2.066  -0.225
  -4.817   2.213  -0.513
  -4.651   2.778  -1.095
  -4.536   2.910  -1.383
  -4.291   3.166  -1.663