 $system timlim=999888777
         mwords=100 $end
 $contrl exetyp=run
         runtyp=energy scftyp=rhf
         icharg=-1 mult=1 units=angs coord=unique
         maxit=50 ispher=1 qmttol=1d-6 icut=12 itol=22 $end
 $scf    dirscf=.t. diis=.t. soscf=.f.
         fdiff=.f. conv=1d-6
         npreo(1)=0,-1,1,9999 $end
 $elpot  iepot=1 where=points $end
 $basis  gbasis=n311 ngauss=6
         ndfunc=1 npfunc=1 diffsp=.t. diffs=.t. $end
 $DATA
TS1a_hfd_irc200_all_revmov.pdb
C1
P     15.0    -0.04200   0.01300  -0.02500 
O      8.0    -0.12700   0.48100   1.45500 
O      8.0     0.93300   0.67500  -0.87300 
F      9.0     0.30200  -1.49100   0.21900 
O      8.0    -1.47700  -0.16100  -0.59900 
C      6.0    -2.15200   0.85600  -1.37700 
H      1.0    -2.23600   1.78400  -0.81700 
H      1.0    -1.60200   0.99900  -2.29800 
H      1.0    -3.12400   0.43600  -1.58800 
C      6.0    -0.02700   1.86700   1.85900 
H      1.0    -0.15700   1.84900   2.93100 
H      1.0     0.96500   2.22100   1.61300 
H      1.0    -0.79400   2.47100   1.37900 
O      8.0    -2.20300   3.37400   0.34300 
H      1.0    -2.34300   4.29200   0.14900 
 $END
 $POINTS
ANGS 3143
  -2.292  -1.250   2.033
  -2.084  -1.564   2.033
   2.429  -0.730   2.033
   2.511  -0.363   2.033
   2.752   0.013   1.731
  -2.346  -1.568   1.731
  -2.114  -1.861   1.731
   2.653  -0.725   1.731
   2.727  -0.359   1.731
   2.931   0.013   1.407
   2.908   0.386   1.407
   2.838  -0.726   1.407
   2.908  -0.360   1.407
   3.073   0.013   1.065
   3.050   0.388   1.065
   2.982  -0.732   1.065
   3.050  -0.362   1.065
   3.175   0.013   0.709
   3.089  -0.729   0.709
   3.154  -0.361   0.709
   3.152  -0.730   0.344
   1.574  -1.670  -2.358
  -0.605  -1.966  -2.605
  -0.232  -2.036  -2.605
   0.148  -2.036  -2.605
   0.521  -1.966  -2.605
   0.875  -1.829  -2.605
   1.198  -1.629  -2.605
  -0.326  -1.720  -2.819
   0.053  -1.740  -2.819
   0.428  -1.679  -2.819
   0.780  -1.538  -2.819
  -0.413  -1.370  -2.998
  -0.042  -1.419  -2.998
   0.329  -1.370  -2.998
   0.674  -1.227  -2.998
  -0.231  -1.060  -3.140
   0.147  -1.060  -3.140
   0.503  -0.931  -3.140
  -0.734  -0.571   3.978
  -0.441  -0.692   3.978
  -0.127  -0.734   3.978
   0.187  -0.692   3.978
   0.480  -0.571   3.978
   0.732  -0.378   3.978
  -1.403  -0.287   3.826
  -1.209  -0.543   3.826
  -0.963  -0.752   3.826
  -0.678  -0.903   3.826
  -0.368  -0.989   3.826
  -0.046  -1.007   3.826
   0.272  -0.954   3.826
   0.571  -0.835   3.826
   0.837  -0.654   3.826
   1.059  -0.421   3.826
  -1.755  -0.150   3.644
  -1.611  -0.438   3.644
  -1.417  -0.695   3.644
  -1.179  -0.912   3.644
  -0.905  -1.082   3.644
  -0.605  -1.198   3.644
  -0.288  -1.257   3.644
   0.034  -1.257   3.644
   0.351  -1.198   3.644
   0.651  -1.082   3.644
   0.925  -0.912   3.644
   1.163  -0.695   3.644
   1.357  -0.438   3.644
  -2.049   0.007   3.435
  -1.948  -0.295   3.435
  -1.800  -0.577   3.435
  -1.609  -0.832   3.435
  -1.379  -1.053   3.435
  -1.117  -1.234   3.435
  -0.829  -1.370   3.435
  -0.523  -1.459   3.435
  -0.207  -1.497   3.435
   0.112  -1.484   3.435
   0.424  -1.421   3.435
   0.722  -1.308   3.435
   0.998  -1.148   3.435
   1.245  -0.947   3.435
   1.456  -0.708   3.435
   1.626  -0.439   3.435
   1.751  -0.146   3.435
  -2.264   0.005   3.201
  -2.172  -0.301   3.201
  -2.036  -0.590   3.201
  -1.860  -0.857   3.201
  -1.646  -1.095   3.201
  -1.401  -1.299   3.201
  -1.128  -1.466   3.201
  -0.834  -1.591   3.201
  -0.525  -1.672   3.201
  -0.207  -1.707   3.201
   0.112  -1.695   3.201
   0.427  -1.637   3.201
   0.729  -1.534   3.201
   1.013  -1.388   3.201
   1.273  -1.202   3.201
   1.503  -0.980   3.201
   1.699  -0.727   3.201
   1.855  -0.448   3.201
   1.969  -0.150   3.201
  -2.493   0.323   2.945
  -2.450   0.009   2.945
  -2.367  -0.297   2.945
  -2.243  -0.588   2.945
  -2.082  -0.861   2.945
  -1.885  -1.109   2.945
  -1.658  -1.329   2.945
  -1.403  -1.517   2.945
  -1.125  -1.670   2.945
  -0.829  -1.783   2.945
  -0.521  -1.857   2.945
   1.279  -1.428   2.945
   1.521  -1.223   2.945
   1.734  -0.988   2.945
   1.913  -0.727   2.945
   2.056  -0.445   2.945
   2.160  -0.145   2.945
  -2.630   0.165   2.670
  -2.570  -0.146   2.670
  -2.473  -0.448   2.670
  -2.338  -0.734   2.670
  -2.168  -1.002   2.670
  -1.966  -1.246   2.670
  -1.735  -1.463   2.670
  -1.479  -1.649   2.670
  -1.201  -1.802   2.670
   1.914  -1.002   2.670
   2.084  -0.734   2.670
   2.219  -0.448   2.670
   2.316  -0.146   2.670
  -2.770   0.481   2.380
  -2.751   0.162   2.380
  -2.693  -0.151   2.380
  -2.598  -0.456   2.380
  -2.467  -0.747   2.380
  -2.302  -1.020   2.380
  -2.105  -1.272   2.380
  -1.880  -1.497   2.380
  -1.628  -1.694   2.380
   2.213  -0.747   2.380
   2.344  -0.456   2.380
   2.439  -0.151   2.380
  -2.857   0.481   2.078
  -2.838   0.164   2.078
  -2.783  -0.149   2.078
  -2.692  -0.453   2.078
  -2.566  -0.744   2.078
  -2.408  -1.019   2.078
   2.529  -0.149   2.078
   2.584   0.164   2.078
  -2.905   0.640   1.769
  -2.905   0.322   1.769
   3.122   0.675   0.873
   3.304   0.675   0.617
   3.283   0.991   0.617
   3.220   1.301   0.617
   3.220   0.049   0.617
   3.283   0.359   0.617
   3.456   0.675   0.342
   3.436   0.991   0.342
   3.376   1.302   0.342
   3.279   1.604   0.342
   3.279  -0.254   0.342
   3.376   0.048   0.342
   3.436   0.359   0.342
   3.576   0.675   0.052
   3.557   0.994   0.052
   3.499   1.307   0.052
   3.404   1.612   0.052
   3.273   1.903   0.052
   3.108   2.176   0.052
   3.273  -0.553   0.052
   3.404  -0.262   0.052
   3.499   0.043   0.052
   3.557   0.356   0.052
   3.663   0.675  -0.250
   3.644   0.992  -0.250
   3.589   1.305  -0.250
   3.498   1.609  -0.250
   3.372   1.900  -0.250
   3.214   2.175  -0.250
   3.024   2.430  -0.250
   2.806   2.661  -0.250
   3.214  -0.825  -0.250
   3.372  -0.550  -0.250
   3.498  -0.259  -0.250
   3.589   0.045  -0.250
   3.644   0.358  -0.250
   3.715   0.675  -0.559
   3.697   0.992  -0.559
   3.643   1.305  -0.559
   3.554   1.610  -0.559
   3.430   1.903  -0.559
   3.274   2.179  -0.559
   3.087   2.436  -0.559
   2.872   2.670  -0.559
   2.632   2.878  -0.559
   2.370   3.058  -0.559
   2.089   3.206  -0.559
   3.087  -1.086  -0.559
   3.274  -0.829  -0.559
   3.430  -0.553  -0.559
   3.554  -0.260  -0.559
   3.643   0.045  -0.559
   3.697   0.358  -0.559
   3.733   0.675  -0.873
   3.715   0.989  -0.873
   3.663   1.298  -0.873
   3.576   1.600  -0.873
   3.456   1.890  -0.873
   3.304   2.165  -0.873
   3.122   2.421  -0.873
   2.913   2.655  -0.873
   2.679   2.864  -0.873
   2.423   3.046  -0.873
   2.148   3.198  -0.873
   1.858   3.318  -0.873
   1.556   3.405  -0.873
   1.247   3.457  -0.873
   0.933   3.475  -0.873
   0.620   3.457  -0.873
   3.122  -1.071  -0.873
   3.304  -0.815  -0.873
   3.456  -0.540  -0.873
   3.576  -0.250  -0.873
   3.663   0.052  -0.873
   3.715   0.361  -0.873
   3.715   0.675  -1.186
   3.697   0.992  -1.186
   3.643   1.305  -1.186
   3.554   1.610  -1.186
   3.430   1.903  -1.186
   3.274   2.179  -1.186
   3.087   2.436  -1.186
   2.872   2.670  -1.186
   2.632   2.878  -1.186
   2.370   3.058  -1.186
   2.089   3.206  -1.186
   1.793   3.321  -1.186
   1.486   3.402  -1.186
   1.171   3.447  -1.186
   0.854   3.456  -1.186
   0.537   3.429  -1.186
   0.226   3.366  -1.186
   2.872  -1.320  -1.186
   3.087  -1.086  -1.186
   3.274  -0.829  -1.186
   3.430  -0.553  -1.186
   3.554  -0.260  -1.186
   3.643   0.045  -1.186
   3.697   0.358  -1.186
   3.663   0.675  -1.496
   3.644   0.992  -1.496
   3.589   1.305  -1.496
   3.498   1.609  -1.496
   3.372   1.900  -1.496
   3.214   2.175  -1.496
   3.024   2.430  -1.496
   2.806   2.661  -1.496
   2.563   2.865  -1.496
   2.298   3.039  -1.496
   2.014   3.182  -1.496
   1.716   3.290  -1.496
   1.407   3.363  -1.496
   1.092   3.400  -1.496
   0.774   3.400  -1.496
   0.459   3.363  -1.496
   0.150   3.290  -1.496
   2.806  -1.311  -1.496
   3.024  -1.080  -1.496
   3.214  -0.825  -1.496
   3.372  -0.550  -1.496
   3.498  -0.259  -1.496
   3.589   0.045  -1.496
   3.644   0.358  -1.496
   3.576   0.675  -1.798
   3.557   0.994  -1.798
   3.499   1.307  -1.798
   3.404   1.612  -1.798
   3.273   1.903  -1.798
   3.108   2.176  -1.798
   2.911   2.428  -1.798
   2.686   2.653  -1.798
   2.434   2.850  -1.798
   2.161   3.015  -1.798
   1.870   3.146  -1.798
   1.565   3.241  -1.798
   1.252   3.299  -1.798
   0.933   3.318  -1.798
   0.614   3.299  -1.798
   0.301   3.241  -1.798
  -0.004   3.146  -1.798
   2.434  -1.500  -1.798
   2.686  -1.303  -1.798
   2.911  -1.078  -1.798
   3.108  -0.826  -1.798
   3.273  -0.553  -1.798
   3.404  -0.262  -1.798
   3.499   0.043  -1.798
   3.557   0.356  -1.798
   3.456   0.675  -2.088
   3.436   0.991  -2.088
   3.376   1.302  -2.088
   3.279   1.604  -2.088
   3.144   1.890  -2.088
   2.974   2.158  -2.088
   2.772   2.402  -2.088
   2.541   2.619  -2.088
   2.285   2.805  -2.088
   2.007   2.958  -2.088
   1.713   3.074  -2.088
   1.406   3.153  -2.088
   1.091   3.193  -2.088
   0.775   3.193  -2.088
   0.460   3.153  -2.088
   0.153   3.074  -2.088
   2.007  -1.608  -2.088
   2.285  -1.455  -2.088
   2.541  -1.269  -2.088
   2.772  -1.052  -2.088
   2.974  -0.808  -2.088
   3.144  -0.540  -2.088
   3.279  -0.254  -2.088
   3.376   0.048  -2.088
   3.436   0.359  -2.088
   3.304   0.675  -2.363
   3.283   0.991  -2.363
   3.220   1.301  -2.363
   3.116   1.601  -2.363
   2.973   1.883  -2.363
   2.794   2.144  -2.363
   2.581   2.379  -2.363
   2.339   2.584  -2.363
   2.072   2.754  -2.363
   1.785   2.887  -2.363
   1.483   2.981  -2.363
   1.170   3.034  -2.363
   0.854   3.045  -2.363
   0.539   3.013  -2.363
   0.231   2.939  -2.363
   1.785  -1.537  -2.363
   2.072  -1.404  -2.363
   2.339  -1.234  -2.363
   2.581  -1.029  -2.363
   2.794  -0.794  -2.363
   2.973  -0.533  -2.363
   3.116  -0.251  -2.363
   3.220   0.049  -2.363
   3.283   0.359  -2.363
   3.122   0.675  -2.619
   3.099   0.994  -2.619
   3.029   1.306  -2.619
   2.915   1.604  -2.619
   2.759   1.883  -2.619
   2.563   2.136  -2.619
   2.333   2.358  -2.619
   2.073   2.544  -2.619
   1.789   2.690  -2.619
   1.487   2.793  -2.619
   1.172   2.851  -2.619
   0.853   2.863  -2.619
   0.535   2.828  -2.619
   1.487  -1.443  -2.619
   1.789  -1.340  -2.619
   2.073  -1.194  -2.619
   2.333  -1.008  -2.619
   2.563  -0.786  -2.619
   2.759  -0.533  -2.619
   2.915  -0.254  -2.619
   3.029   0.044  -2.619
   3.099   0.356  -2.619
   2.913   0.675  -2.853
   2.887   0.993  -2.853
   2.811   1.302  -2.853
   2.686   1.595  -2.853
   2.516   1.864  -2.853
   2.305   2.103  -2.853
   2.058   2.304  -2.853
   1.782   2.464  -2.853
   1.484   2.577  -2.853
   1.172   2.640  -2.853
   0.853   2.653  -2.853
   0.537   2.615  -2.853
   1.172  -1.290  -2.853
   1.484  -1.227  -2.853
   1.782  -1.114  -2.853
   2.058  -0.954  -2.853
   2.305  -0.753  -2.853
   2.516  -0.514  -2.853
   2.686  -0.245  -2.853
   2.811   0.048  -2.853
   2.887   0.357  -2.853
   2.679   0.675  -3.062
   2.649   0.996  -3.062
   2.561   1.306  -3.062
   2.417   1.594  -3.062
   2.223   1.851  -3.062
   1.985   2.068  -3.062
   1.711   2.238  -3.062
   1.411   2.354  -3.062
   1.094   2.413  -3.062
   0.772   2.413  -3.062
   0.772  -1.063  -3.062
   1.094  -1.063  -3.062
   1.411  -1.004  -3.062
   1.711  -0.888  -3.062
   1.985  -0.718  -3.062
   2.223  -0.501  -3.062
   2.417  -0.244  -3.062
   2.561   0.044  -3.062
   2.649   0.354  -3.062
   2.423   0.675  -3.244
   2.388   0.995  -3.244
   2.285   1.301  -3.244
   2.119   1.577  -3.244
   1.897   1.810  -3.244
   1.631   1.991  -3.244
   1.332   2.110  -3.244
   1.014   2.163  -3.244
   0.692   2.145  -3.244
   0.382  -0.709  -3.244
   0.692  -0.795  -3.244
   1.014  -0.813  -3.244
   1.332  -0.760  -3.244
   1.631  -0.641  -3.244
   1.897  -0.460  -3.244
   2.119  -0.227  -3.244
   2.285   0.049  -3.244
   2.388   0.355  -3.244
   2.148   0.675  -3.396
   2.106   0.989  -3.396
   1.985   1.282  -3.396
   1.792   1.534  -3.396
   1.540   1.727  -3.396
   1.247   1.848  -3.396
   0.933   1.890  -3.396
   0.619   1.848  -3.396
   0.326  -0.377  -3.396
   0.619  -0.498  -3.396
   0.933  -0.540  -3.396
   1.247  -0.498  -3.396
   1.540  -0.377  -3.396
   1.792  -0.184  -3.396
   1.985   0.068  -3.396
   2.106   0.361  -3.396
   1.858   0.675  -3.516
   1.802   0.991  -3.516
   1.641   1.269  -3.516
   1.395   1.476  -3.516
   1.094   1.586  -3.516
   0.772   1.586  -3.516
   0.471  -0.126  -3.516
   0.772  -0.236  -3.516
   1.094  -0.236  -3.516
   1.395  -0.126  -3.516
   1.641   0.081  -3.516
   1.802   0.359  -3.516
   1.556   0.675  -3.603
   1.473   0.987  -3.603
   1.245   1.215  -3.603
   0.933   1.298  -3.603
   0.621   0.135  -3.603
   0.933   0.052  -3.603
   1.245   0.135  -3.603
   1.473   0.363  -3.603
   1.247   0.675  -3.655
   1.090   0.947  -3.655
   0.776   0.947  -3.655
   0.619   0.675  -3.655
   0.776   0.403  -3.655
   1.090   0.403  -3.655
   0.933   0.675  -3.673
   0.463  -1.769   3.071
  -0.017  -2.044   3.017
   0.302  -2.130   3.017
   0.621  -2.044   3.017
   0.855  -1.810   3.017
   1.250  -1.491   2.928
  -0.424  -2.100   2.928
  -0.172  -2.312   2.928
   0.137  -2.424   2.928
   0.467  -2.424   2.928
   0.776  -2.312   2.928
   1.028  -2.100   2.928
   1.193  -1.815   2.928
   1.547  -1.491   2.805
  -0.776  -2.114   2.805
  -0.579  -2.372   2.805
  -0.321  -2.569   2.805
  -0.020  -2.694   2.805
   0.302  -2.736   2.805
   0.624  -2.694   2.805
   0.925  -2.569   2.805
   1.183  -2.372   2.805
   1.380  -2.114   2.805
   1.505  -1.813   2.805
   1.829  -1.491   2.649
  -1.145  -1.979   2.649
  -1.006  -2.278   2.649
  -0.807  -2.541   2.649
  -0.555  -2.755   2.649
  -0.263  -2.909   2.649
   0.055  -2.998   2.649
   0.385  -3.016   2.649
   0.710  -2.962   2.649
   1.017  -2.840   2.649
   1.291  -2.655   2.649
   1.518  -2.415   2.649
   1.688  -2.132   2.649
   1.793  -1.819   2.649
   2.091  -1.491   2.463
   2.061  -1.162   2.463
  -1.457  -1.820   2.463
  -1.367  -2.137   2.463
  -1.219  -2.433   2.463
  -1.020  -2.697   2.463
  -0.776  -2.919   2.463
  -0.496  -3.093   2.463
  -0.188  -3.212   2.463
   0.137  -3.273   2.463
   0.467  -3.273   2.463
   0.792  -3.212   2.463
   1.100  -3.093   2.463
   1.380  -2.919   2.463
   1.624  -2.697   2.463
   1.823  -2.433   2.463
   1.971  -2.137   2.463
   2.061  -1.820   2.463
   2.331  -1.491   2.248
   2.305  -1.165   2.248
   2.227  -0.848   2.248
  -1.668  -1.977   2.248
  -1.565  -2.286   2.248
  -1.413  -2.576   2.248
  -1.217  -2.837   2.248
  -0.981  -3.063   2.248
  -0.713  -3.249   2.248
  -0.418  -3.389   2.248
  -0.104  -3.479   2.248
   0.220  -3.519   2.248
   0.547  -3.506   2.248
   0.867  -3.440   2.248
   1.172  -3.324   2.248
   1.455  -3.161   2.248
   1.708  -2.955   2.248
   1.924  -2.710   2.248
   2.099  -2.434   2.248
   2.227  -2.134   2.248
   2.305  -1.817   2.248
   2.546  -1.491   2.008
   2.522  -1.164   2.008
   2.451  -0.845   2.008
  -1.888  -1.979   2.008
  -1.794  -2.293   2.008
  -1.655  -2.589   2.008
  -1.474  -2.862   2.008
  -1.255  -3.106   2.008
  -1.004  -3.316   2.008
  -0.724  -3.487   2.008
  -0.423  -3.615   2.008
  -0.106  -3.698   2.008
   0.220  -3.733   2.008
   0.547  -3.721   2.008
   0.870  -3.662   2.008
   1.180  -3.556   2.008
   1.471  -3.406   2.008
   1.737  -3.216   2.008
   1.973  -2.988   2.008
   2.173  -2.729   2.008
   2.334  -2.443   2.008
   2.451  -2.137   2.008
   2.522  -1.818   2.008
   2.732  -1.491   1.746
   2.710  -1.167   1.746
   2.646  -0.849   1.746
  -2.079  -1.975   1.746
  -1.994  -2.288   1.746
  -1.867  -2.587   1.746
  -1.701  -2.866   1.746
  -1.500  -3.121   1.746
  -1.267  -3.347   1.746
  -1.006  -3.539   1.746
  -0.721  -3.695   1.746
  -0.418  -3.812   1.746
  -0.102  -3.887   1.746
   0.221  -3.920   1.746
   0.545  -3.909   1.746
   0.865  -3.855   1.746
   1.175  -3.759   1.746
   1.470  -3.622   1.746
   1.743  -3.447   1.746
   1.991  -3.238   1.746
   2.209  -2.997   1.746
   2.393  -2.729   1.746
   2.539  -2.440   1.746
   2.646  -2.133   1.746
   2.710  -1.815   1.746
   2.888  -1.491   1.464
   2.867  -1.167   1.464
   2.807  -0.848   1.464
  -2.203  -2.134   1.464
  -2.102  -2.443   1.464
  -1.964  -2.737   1.464
  -1.790  -3.011   1.464
  -1.583  -3.261   1.464
  -1.346  -3.483   1.464
  -1.084  -3.674   1.464
  -0.799  -3.831   1.464
  -0.497  -3.950   1.464
  -0.183  -4.031   1.464
   0.140  -4.072   1.464
   0.464  -4.072   1.464
   0.787  -4.031   1.464
   1.101  -3.950   1.464
   1.403  -3.831   1.464
   1.688  -3.674   1.464
   1.950  -3.483   1.464
   2.187  -3.261   1.464
   2.394  -3.011   1.464
   2.568  -2.737   1.464
   2.706  -2.443   1.464
   2.807  -2.134   1.464
   2.867  -1.815   1.464
   3.011  -1.491   1.167
   2.991  -1.164   1.167
   2.932  -0.843   1.167
  -2.231  -2.452   1.167
  -2.097  -2.750   1.167
  -1.927  -3.030   1.167
  -1.726  -3.287   1.167
  -1.494  -3.519   1.167
  -1.237  -3.720   1.167
  -0.957  -3.890   1.167
  -0.659  -4.024   1.167
  -0.346  -4.121   1.167
  -0.025  -4.180   1.167
   0.302  -4.200   1.167
   0.629  -4.180   1.167
   0.950  -4.121   1.167
   1.263  -4.024   1.167
   1.561  -3.890   1.167
   1.841  -3.720   1.167
   2.098  -3.519   1.167
   2.330  -3.287   1.167
   2.531  -3.030   1.167
   2.701  -2.750   1.167
   2.835  -2.452   1.167
   2.932  -2.139   1.167
   2.991  -1.818   1.167
   3.100  -1.491   0.858
   3.081  -1.166   0.858
   3.025  -0.846   0.858
  -2.327  -2.448   0.858
  -2.198  -2.747   0.858
  -2.036  -3.029   0.858
  -1.841  -3.290   0.858
  -1.618  -3.526   0.858
  -1.369  -3.735   0.858
  -1.097  -3.914   0.858
  -0.806  -4.060   0.858
  -0.500  -4.171   0.858
  -0.184  -4.247   0.858
   0.139  -4.284   0.858
   0.465  -4.284   0.858
   0.788  -4.247   0.858
   1.104  -4.171   0.858
   1.410  -4.060   0.858
   1.701  -3.914   0.858
   1.973  -3.735   0.858
   2.222  -3.526   0.858
   2.445  -3.290   0.858
   2.640  -3.029   0.858
   2.802  -2.747   0.858
   2.931  -2.448   0.858
   3.025  -2.136   0.858
   3.081  -1.816   0.858
   3.154  -1.491   0.540
   3.135  -1.166   0.540
  -2.325  -2.601   0.540
  -2.181  -2.893   0.540
  -2.005  -3.167   0.540
  -1.799  -3.419   0.540
  -1.566  -3.646   0.540
  -1.308  -3.845   0.540
  -1.029  -4.013   0.540
  -0.733  -4.149   0.540
  -0.423  -4.249   0.540
  -0.104  -4.314   0.540
   0.221  -4.342   0.540
   0.546  -4.332   0.540
   0.868  -4.286   0.540
   1.183  -4.203   0.540
   1.487  -4.085   0.540
   1.775  -3.933   0.540
   2.044  -3.749   0.540
   2.290  -3.536   0.540
   2.510  -3.296   0.540
   2.701  -3.033   0.540
   2.861  -2.749   0.540
   2.988  -2.449   0.540
   3.080  -2.137   0.540
   3.135  -1.816   0.540
   3.172  -1.491   0.219
   3.154  -1.170   0.219
  -2.284  -2.736   0.219
  -2.128  -3.018   0.219
  -1.942  -3.280   0.219
  -1.727  -3.520   0.219
  -1.487  -3.735   0.219
  -1.225  -3.921   0.219
  -0.943  -4.077   0.219
  -0.646  -4.200   0.219
  -0.337  -4.289   0.219
  -0.019  -4.343   0.219
   0.302  -4.361   0.219
   0.623  -4.343   0.219
   0.941  -4.289   0.219
   1.250  -4.200   0.219
   1.547  -4.077   0.219
   1.829  -3.921   0.219
   2.091  -3.735   0.219
   2.331  -3.520   0.219
   2.546  -3.280   0.219
   2.732  -3.018   0.219
   2.888  -2.736   0.219
   3.011  -2.439   0.219
   3.100  -2.130   0.219
   3.154  -1.812   0.219
   3.154  -1.491  -0.102
   3.135  -1.166  -0.102
  -2.181  -2.893  -0.102
  -2.005  -3.167  -0.102
  -1.799  -3.419  -0.102
  -1.566  -3.646  -0.102
  -1.308  -3.845  -0.102
  -1.029  -4.013  -0.102
  -0.733  -4.149  -0.102
  -0.423  -4.249  -0.102
  -0.104  -4.314  -0.102
   0.221  -4.342  -0.102
   0.546  -4.332  -0.102
   0.868  -4.286  -0.102
   1.183  -4.203  -0.102
   1.487  -4.085  -0.102
   1.775  -3.933  -0.102
   2.044  -3.749  -0.102
   2.290  -3.536  -0.102
   2.510  -3.296  -0.102
   2.701  -3.033  -0.102
   2.861  -2.749  -0.102
   2.988  -2.449  -0.102
   3.080  -2.137  -0.102
   3.135  -1.816  -0.102
   3.100  -1.491  -0.420
   3.081  -1.166  -0.420
  -2.036  -3.029  -0.420
  -1.841  -3.290  -0.420
  -1.618  -3.526  -0.420
  -1.369  -3.735  -0.420
  -1.097  -3.914  -0.420
  -0.806  -4.060  -0.420
  -0.500  -4.171  -0.420
  -0.184  -4.247  -0.420
   0.139  -4.284  -0.420
   0.465  -4.284  -0.420
   0.788  -4.247  -0.420
   1.104  -4.172  -0.420
   1.410  -4.060  -0.420
   1.701  -3.914  -0.420
   1.973  -3.735  -0.420
   2.222  -3.526  -0.420
   2.445  -3.290  -0.420
   2.640  -3.029  -0.420
   2.802  -2.747  -0.420
   2.931  -2.448  -0.420
   3.025  -2.136  -0.420
   3.081  -1.816  -0.420
   3.011  -1.491  -0.729
  -1.927  -3.030  -0.729
  -1.726  -3.287  -0.729
  -1.494  -3.519  -0.729
  -1.237  -3.720  -0.729
  -0.957  -3.890  -0.729
  -0.659  -4.024  -0.729
  -0.346  -4.121  -0.729
  -0.025  -4.180  -0.729
   0.302  -4.200  -0.729
   0.629  -4.180  -0.729
   0.950  -4.121  -0.729
   1.263  -4.024  -0.729
   1.561  -3.890  -0.729
   1.841  -3.720  -0.729
   2.098  -3.519  -0.729
   2.330  -3.287  -0.729
   2.531  -3.030  -0.729
   2.701  -2.750  -0.729
   2.835  -2.452  -0.729
   2.932  -2.139  -0.729
   2.991  -1.818  -0.729
   2.888  -1.491  -1.026
  -1.790  -3.011  -1.026
  -1.583  -3.261  -1.026
  -1.346  -3.483  -1.026
  -1.084  -3.674  -1.026
  -0.799  -3.831  -1.026
  -0.497  -3.950  -1.026
  -0.183  -4.031  -1.026
   0.140  -4.072  -1.026
   0.464  -4.072  -1.026
   0.787  -4.031  -1.026
   1.101  -3.950  -1.026
   1.403  -3.831  -1.026
   1.688  -3.674  -1.026
   1.950  -3.483  -1.026
   2.187  -3.261  -1.026
   2.394  -3.011  -1.026
   2.568  -2.737  -1.026
   2.706  -2.443  -1.026
   2.807  -2.134  -1.026
   2.867  -1.815  -1.026
   2.732  -1.491  -1.308
  -1.701  -2.866  -1.308
  -1.500  -3.121  -1.308
  -1.267  -3.347  -1.308
  -1.006  -3.539  -1.308
  -0.721  -3.695  -1.308
  -0.418  -3.812  -1.308
  -0.102  -3.887  -1.308
   0.221  -3.920  -1.308
   0.545  -3.909  -1.308
   0.865  -3.855  -1.308
   1.175  -3.759  -1.308
   1.470  -3.622  -1.308
   1.743  -3.447  -1.308
   1.991  -3.238  -1.308
   2.209  -2.997  -1.308
   2.393  -2.729  -1.308
   2.539  -2.440  -1.308
   2.646  -2.133  -1.308
   2.710  -1.815  -1.308
  -1.474  -2.862  -1.570
  -1.255  -3.106  -1.570
  -1.004  -3.316  -1.570
  -0.724  -3.487  -1.570
  -0.423  -3.615  -1.570
  -0.106  -3.698  -1.570
   0.220  -3.733  -1.570
   0.547  -3.721  -1.570
   0.870  -3.662  -1.570
   1.180  -3.556  -1.570
   1.471  -3.406  -1.570
   1.737  -3.216  -1.570
   1.973  -2.988  -1.570
   2.173  -2.729  -1.570
   2.334  -2.443  -1.570
   2.451  -2.137  -1.570
   2.522  -1.818  -1.570
  -1.217  -2.837  -1.810
  -0.981  -3.063  -1.810
  -0.713  -3.249  -1.810
  -0.418  -3.389  -1.810
  -0.104  -3.479  -1.810
   0.220  -3.519  -1.810
   0.547  -3.506  -1.810
   0.867  -3.440  -1.810
   1.172  -3.324  -1.810
   1.455  -3.161  -1.810
   1.708  -2.955  -1.810
   1.924  -2.710  -1.810
   2.099  -2.434  -1.810
   2.227  -2.134  -1.810
   2.305  -1.817  -1.810
  -1.020  -2.697  -2.025
  -0.776  -2.919  -2.025
  -0.496  -3.093  -2.025
  -0.188  -3.212  -2.025
   0.137  -3.273  -2.025
   0.467  -3.273  -2.025
   0.792  -3.212  -2.025
   1.100  -3.093  -2.025
   1.380  -2.919  -2.025
   1.624  -2.697  -2.025
   1.823  -2.433  -2.025
   1.971  -2.137  -2.025
   2.061  -1.820  -2.025
  -0.807  -2.541  -2.211
  -0.555  -2.755  -2.211
  -0.263  -2.909  -2.211
   0.055  -2.998  -2.211
   0.385  -3.016  -2.211
   0.710  -2.962  -2.211
   1.017  -2.840  -2.211
   1.291  -2.655  -2.211
   1.518  -2.415  -2.211
   1.688  -2.132  -2.211
   1.793  -1.819  -2.211
  -0.579  -2.372  -2.367
  -0.321  -2.569  -2.367
  -0.020  -2.694  -2.367
   0.302  -2.736  -2.367
   0.624  -2.694  -2.367
   0.925  -2.569  -2.367
   1.183  -2.372  -2.367
   1.380  -2.114  -2.367
   1.505  -1.813  -2.367
  -0.172  -2.312  -2.490
   0.137  -2.425  -2.490
   0.467  -2.425  -2.490
   0.776  -2.312  -2.490
   1.028  -2.100  -2.490
   1.193  -1.815  -2.490
   0.302  -2.130  -2.579
   0.621  -2.044  -2.579
  -2.958   0.000   1.772
  -2.958  -0.322   1.772
  -2.889  -0.637   1.772
  -2.753  -0.929   1.772
  -2.559  -1.185   1.772
  -3.105   0.470   1.590
  -3.193   0.160   1.590
  -3.223  -0.161   1.590
  -3.193  -0.482   1.590
  -3.105  -0.792   1.590
  -2.961  -1.080   1.590
  -2.767  -1.337   1.590
  -2.529  -1.554   1.590
  -3.450  -0.002   1.381
  -3.450  -0.320   1.381
  -3.399  -0.635   1.381
  -3.298  -0.937   1.381
  -3.150  -1.219   1.381
  -2.959  -1.474   1.381
  -2.729  -1.695   1.381
  -2.467  -1.876   1.381
  -3.660  -0.321   1.147
  -3.614  -0.637   1.147
  -3.522  -0.943   1.147
  -3.386  -1.232   1.147
  -3.210  -1.499   1.147
  -2.996  -1.737   1.147
  -2.751  -1.941   1.147
  -2.478  -2.108   1.147
  -3.800  -0.633   0.891
  -3.717  -0.939   0.891
  -3.593  -1.230   0.891
  -3.432  -1.503   0.891
  -3.235  -1.751   0.891
  -3.008  -1.971   0.891
  -2.753  -2.159   0.891
  -2.475  -2.312   0.891
  -3.920  -0.788   0.616
  -3.823  -1.090   0.616
  -3.688  -1.376   0.616
  -3.518  -1.644   0.616
  -3.316  -1.888   0.616
  -3.085  -2.105   0.616
  -2.829  -2.291   0.616
  -2.551  -2.444   0.616
  -3.817  -1.389   0.326
  -3.652  -1.662   0.326
  -3.455  -1.914   0.326
  -3.230  -2.139   0.326
  -2.978  -2.336   0.326
  -2.705  -2.501   0.326
  -2.414  -2.632   0.326
  -3.758  -1.661   0.024
  -3.568  -1.916   0.024
  -3.350  -2.147   0.024
  -3.107  -2.351   0.024
  -2.842  -2.525   0.024
  -2.558  -2.668   0.024
  -2.260  -2.776   0.024
  -3.728  -1.796  -0.285
  -3.527  -2.042  -0.285
  -3.299  -2.264  -0.285
  -3.048  -2.458  -0.285
  -2.775  -2.622  -0.285
  -2.486  -2.754  -0.285
  -2.184  -2.852  -0.285
  -3.666  -1.907  -0.599
  -3.457  -2.141  -0.599
  -3.223  -2.350  -0.599
  -2.967  -2.532  -0.599
  -2.692  -2.684  -0.599
  -2.402  -2.804  -0.599
  -2.100  -2.891  -0.599
  -3.527  -2.042  -0.912
  -3.299  -2.264  -0.912
  -3.048  -2.458  -0.912
  -2.775  -2.622  -0.912
  -2.486  -2.754  -0.912
  -2.184  -2.852  -0.912
  -3.350  -2.147  -1.222
  -3.107  -2.351  -1.222
  -2.842  -2.525  -1.222
  -2.558  -2.668  -1.222
  -2.260  -2.776  -1.222
  -1.951  -2.849  -1.222
  -2.978  -2.336  -1.524
  -2.705  -2.501  -1.524
  -2.414  -2.632  -1.524
  -2.109  -2.727  -1.524
  -1.796  -2.785  -1.524
  -2.829  -2.291  -1.814
  -2.551  -2.444  -1.814
  -2.257  -2.560  -1.814
  -1.950  -2.639  -1.814
  -1.635  -2.679  -1.814
  -2.753  -2.159  -2.089
  -2.475  -2.312  -2.089
  -2.179  -2.425  -2.089
  -1.871  -2.499  -2.089
  -1.556  -2.531  -2.089
  -1.240  -2.520  -2.089
  -2.478  -2.108  -2.345
  -2.184  -2.233  -2.345
  -1.875  -2.314  -2.345
  -1.557  -2.349  -2.345
  -1.238  -2.337  -2.345
  -0.923  -2.279  -2.345
  -2.179  -2.012  -2.579
  -1.873  -2.101  -2.579
  -1.557  -2.139  -2.579
  -1.238  -2.126  -2.579
  -0.926  -2.063  -2.579
  -1.638  -1.899  -2.788
  -1.316  -1.899  -2.788
  -0.999  -1.840  -2.788
  -0.699  -1.724  -2.788
  -1.078  -1.596  -2.970
  -0.779  -1.477  -2.970
  -3.176   0.856   1.549
  -3.497   0.856   1.416
  -3.451   0.508   1.416
  -3.792   1.034   1.248
  -3.792   0.678   1.248
  -3.715   0.329   1.248
  -4.052   1.211   1.047
  -4.085   0.856   1.047
  -4.052   0.501   1.047
  -3.954   0.158   1.047
  -3.795  -0.161   1.047
  -4.280   1.381   0.815
  -4.337   1.032   0.815
  -4.337   0.680   0.815
  -4.280   0.331   0.815
  -4.169  -0.003   0.815
  -4.005  -0.316   0.815
  -4.518   1.383   0.556
  -4.569   1.033   0.556
  -4.632   1.717   0.272
  -4.724   1.379   0.272
  -4.749   1.884  -0.032
  -4.888   1.894  -0.353
  -4.853   2.212  -0.687
  -4.834   2.371  -1.030
  -4.576   2.789  -1.377
  -4.777   2.505  -1.377
  -0.271   3.295  -1.724
  -4.422   2.939  -1.724
  -4.644   2.667  -1.724
  -0.347   3.280  -2.067
  -0.641   3.473  -2.067
  -3.957   3.280  -2.067
  -4.226   3.054  -2.067
  -4.467   2.799  -2.067
  -4.677   2.517  -2.067
  -1.114   3.592  -2.401
  -1.452   3.697  -2.401
  -3.512   3.447  -2.401
  -3.814   3.264  -2.401
  -4.092   3.046  -2.401
  -4.342   2.796  -2.401
  -4.560   2.518  -2.401
  -2.505  -2.049  -2.401
  -1.629   3.600  -2.722
  -1.977   3.643  -2.722
  -2.327   3.643  -2.722
  -2.675   3.600  -2.722
  -3.015   3.512  -2.722
  -3.341   3.383  -2.722
  -3.649   3.214  -2.722
  -3.932   3.008  -2.722
  -4.188   2.768  -2.722
  -4.412   2.498  -2.722
  -2.675  -1.888  -2.722
  -2.327  -1.931  -2.722
  -1.977  -1.931  -2.722
  -2.240   3.479  -3.026
  -2.589   3.444  -3.026
  -2.930   3.363  -3.026
  -3.257   3.237  -3.026
  -3.564   3.068  -3.026
  -3.847   2.860  -3.026
  -4.099   2.617  -3.026
  -4.316   2.342  -3.026
  -2.589  -1.732  -3.026
  -2.240  -1.767  -3.026
  -1.889  -1.756  -3.026
  -1.544  -1.697  -3.026
  -1.209  -1.593  -3.026
  -0.891  -1.446  -3.026
  -2.592   3.239  -3.310
  -2.935   3.150  -3.310
  -3.260   3.011  -3.310
  -3.562   2.827  -3.310
  -3.834   2.601  -3.310
  -4.070   2.337  -3.310
  -4.266   2.042  -3.310
  -2.592  -1.527  -3.310
  -2.241  -1.566  -3.310
  -1.887  -1.553  -3.310
  -1.539  -1.489  -3.310
  -1.204  -1.375  -3.310
  -2.929   2.906  -3.569
  -3.248   2.754  -3.569
  -3.538   2.554  -3.569
  -3.793   2.310  -3.569
  -4.005   2.028  -3.569
  -2.590  -1.292  -3.569
  -2.240  -1.334  -3.569
  -1.888  -1.320  -3.569
  -3.014   2.586  -3.801
  -3.317   2.398  -3.801
  -3.580   2.158  -3.801
  -3.795   1.874  -3.801
  -3.954   1.554  -3.801
  -2.681  -1.003  -3.801
  -2.330  -1.069  -3.801
  -3.349   1.990  -4.002
  -3.565   1.706  -4.002
  -3.715   1.383  -4.002
  -2.762  -0.676  -4.002
  -3.451   1.204  -4.170
  -3.497   0.856  -4.170
  -3.451   0.508  -4.170
  -3.317   0.183  -4.170
  -3.103  -0.095  -4.170
  -4.672   2.080   0.042
  -4.690   2.643  -0.817
  -4.616   2.790  -1.108
  -4.501   2.922  -1.396
  -4.256   3.178  -1.676
  -3.944   3.388  -1.945
  -3.421   3.640  -2.200
  -3.657   3.465  -2.200
  -1.722   3.751  -2.438
  -2.014   3.805  -2.438
  -2.310   3.815  -2.438