 $system timlim=999888777
         mwords=100 $end
 $contrl exetyp=run
         runtyp=energy scftyp=rhf
         icharg=-1 mult=1 units=angs coord=unique
         maxit=50 ispher=1 qmttol=1d-6 icut=12 itol=22 $end
 $scf    dirscf=.t. diis=.t. soscf=.f.
         fdiff=.f. conv=1d-6
         npreo(1)=0,-1,1,9999 $end
 $elpot  iepot=1 where=points $end
 $basis  gbasis=n311 ngauss=6
         ndfunc=1 npfunc=1 diffsp=.t. diffs=.t. $end
 $DATA
TS1a_hfd_irc200_all_revmov.pdb
C1
P     15.0    -0.04200   0.01100  -0.02500 
O      8.0    -0.13000   0.44200   1.46800 
O      8.0     0.92900   0.69700  -0.85800 
F      9.0     0.31200  -1.49600   0.18300 
O      8.0    -1.47700  -0.16100  -0.60000 
C      6.0    -2.15200   0.85600  -1.37700 
H      1.0    -2.20400   1.79400  -0.82800 
H      1.0    -1.62200   0.97500  -2.31300 
H      1.0    -3.13600   0.45100  -1.56000 
C      6.0    -0.01000   1.81500   1.90900 
H      1.0    -0.17900   1.77300   2.97500 
H      1.0     1.00000   2.14900   1.70900 
H      1.0    -0.74200   2.44800   1.41500 
O      8.0    -2.10100   3.37200   0.33800 
H      1.0    -2.11900   4.28500   0.08100 
 $END
 $POINTS
ANGS 3142
  -2.292  -1.252   2.033
  -2.084  -1.566   2.033
   2.429  -0.732   2.033
   2.511  -0.365   2.033
   2.752   0.011   1.731
  -2.346  -1.570   1.731
  -2.114  -1.863   1.731
   2.653  -0.727   1.731
   2.727  -0.361   1.731
   2.931   0.011   1.407
   2.908   0.384   1.407
   2.838  -0.728   1.407
   2.908  -0.362   1.407
   3.073   0.011   1.065
   3.050   0.386   1.065
   2.982  -0.734   1.065
   3.050  -0.364   1.065
   3.175   0.011   0.709
   3.089  -0.731   0.709
   3.154  -0.363   0.709
   3.152  -0.732   0.344
  -0.605  -1.968  -2.605
  -0.232  -2.038  -2.605
   1.198  -1.631  -2.605
  -0.326  -1.722  -2.819
   0.053  -1.742  -2.819
   0.428  -1.681  -2.819
   0.780  -1.540  -2.819
   1.095  -1.327  -2.819
  -0.413  -1.372  -2.998
  -0.042  -1.421  -2.998
   0.329  -1.372  -2.998
   0.674  -1.229  -2.998
  -0.231  -1.062  -3.140
   0.147  -1.062  -3.140
   0.503  -0.933  -3.140
  -0.737  -0.610   3.991
  -0.444  -0.731   3.991
  -0.130  -0.773   3.991
   0.184  -0.731   3.991
   0.477  -0.610   3.991
  -1.212  -0.582   3.839
  -0.966  -0.791   3.839
  -0.681  -0.942   3.839
  -0.371  -1.028   3.839
  -0.049  -1.046   3.839
   0.269  -0.993   3.839
   0.568  -0.874   3.839
   0.834  -0.693   3.839
   1.056  -0.460   3.839
  -1.758  -0.189   3.657
  -1.614  -0.477   3.657
  -1.420  -0.734   3.657
  -1.182  -0.951   3.657
  -0.908  -1.121   3.657
  -0.608  -1.237   3.657
  -0.291  -1.296   3.657
   0.031  -1.296   3.657
   0.348  -1.237   3.657
   0.648  -1.121   3.657
   0.922  -0.951   3.657
   1.160  -0.734   3.657
   1.354  -0.477   3.657
  -2.052  -0.032   3.448
  -1.951  -0.334   3.448
  -1.803  -0.616   3.448
  -1.612  -0.871   3.448
  -1.382  -1.092   3.448
  -1.120  -1.273   3.448
  -0.832  -1.409   3.448
  -0.526  -1.498   3.448
  -0.210  -1.536   3.448
   0.109  -1.523   3.448
   0.421  -1.460   3.448
   0.719  -1.347   3.448
   0.995  -1.187   3.448
   1.242  -0.986   3.448
   1.453  -0.747   3.448
   1.623  -0.478   3.448
  -2.267  -0.034   3.214
  -2.175  -0.340   3.214
  -2.039  -0.629   3.214
  -1.863  -0.896   3.214
  -1.649  -1.134   3.214
  -1.404  -1.338   3.214
  -1.131  -1.505   3.214
  -0.837  -1.630   3.214
  -0.528  -1.711   3.214
  -0.210  -1.746   3.214
   0.109  -1.734   3.214
   0.424  -1.676   3.214
   0.726  -1.573   3.214
   1.010  -1.427   3.214
   1.270  -1.241   3.214
   1.500  -1.019   3.214
   1.696  -0.766   3.214
   1.852  -0.487   3.214
   1.966  -0.189   3.214
  -2.496   0.284   2.958
  -2.453  -0.030   2.958
  -2.370  -0.336   2.958
  -2.246  -0.627   2.958
  -2.085  -0.900   2.958
  -1.888  -1.148   2.958
  -1.661  -1.368   2.958
  -1.406  -1.556   2.958
  -1.128  -1.709   2.958
  -0.832  -1.822   2.958
  -0.524  -1.896   2.958
   1.276  -1.467   2.958
   1.518  -1.262   2.958
   1.731  -1.027   2.958
   1.910  -0.766   2.958
   2.053  -0.484   2.958
   2.157  -0.184   2.958
  -2.633   0.126   2.683
  -2.573  -0.185   2.683
  -2.476  -0.487   2.683
  -2.341  -0.773   2.683
  -2.171  -1.041   2.683
  -1.969  -1.285   2.683
  -1.738  -1.502   2.683
  -1.482  -1.688   2.683
  -1.204  -1.841   2.683
   1.709  -1.285   2.683
   1.911  -1.041   2.683
   2.081  -0.773   2.683
   2.216  -0.487   2.683
   2.313  -0.185   2.683
  -2.773   0.442   2.393
  -2.754   0.123   2.393
  -2.696  -0.190   2.393
  -2.601  -0.495   2.393
  -2.470  -0.786   2.393
  -2.305  -1.059   2.393
  -2.108  -1.311   2.393
  -1.883  -1.536   2.393
  -1.631  -1.733   2.393
   2.210  -0.786   2.393
   2.341  -0.495   2.393
   2.436  -0.190   2.393
  -2.860   0.442   2.091
  -2.841   0.125   2.091
  -2.786  -0.188   2.091
  -2.695  -0.492   2.091
  -2.569  -0.783   2.091
  -2.411  -1.058   2.091
  -2.221  -1.313   2.091
   2.526  -0.188   2.091
  -2.908   0.601   1.782
  -2.908   0.283   1.782
   3.118   0.697   0.888
   3.300   0.697   0.632
   3.279   1.013   0.632
   3.216   0.071   0.632
   3.279   0.381   0.632
   3.452   0.697   0.357
   3.432   1.013   0.357
   3.372   1.324   0.357
   3.275   1.626   0.357
   3.275  -0.232   0.357
   3.372   0.070   0.357
   3.432   0.381   0.357
   3.572   0.697   0.067
   3.553   1.016   0.067
   3.495   1.329   0.067
   3.400   1.634   0.067
   3.269   1.925   0.067
   3.104   2.198   0.067
   3.269  -0.531   0.067
   3.400  -0.240   0.067
   3.495   0.065   0.067
   3.553   0.378   0.067
   3.659   0.697  -0.235
   3.640   1.014  -0.235
   3.585   1.327  -0.235
   3.494   1.631  -0.235
   3.368   1.922  -0.235
   3.210   2.197  -0.235
   3.020   2.452  -0.235
   2.802   2.683  -0.235
   3.210  -0.803  -0.235
   3.368  -0.528  -0.235
   3.494  -0.237  -0.235
   3.585   0.067  -0.235
   3.640   0.380  -0.235
   3.711   0.697  -0.544
   3.693   1.014  -0.544
   3.639   1.327  -0.544
   3.550   1.632  -0.544
   3.426   1.925  -0.544
   3.270   2.201  -0.544
   3.083   2.458  -0.544
   2.868   2.692  -0.544
   2.628   2.900  -0.544
   2.366   3.080  -0.544
   2.085   3.228  -0.544
   1.789   3.343  -0.544
   1.482   3.424  -0.544
   1.167   3.469  -0.544
   3.083  -1.064  -0.544
   3.270  -0.807  -0.544
   3.426  -0.531  -0.544
   3.550  -0.238  -0.544
   3.639   0.067  -0.544
   3.693   0.380  -0.544
   3.729   0.697  -0.858
   3.711   1.011  -0.858
   3.659   1.320  -0.858
   3.572   1.622  -0.858
   3.452   1.912  -0.858
   3.300   2.187  -0.858
   3.118   2.443  -0.858
   2.909   2.677  -0.858
   2.675   2.886  -0.858
   2.419   3.068  -0.858
   2.144   3.220  -0.858
   1.854   3.340  -0.858
   1.552   3.427  -0.858
   1.243   3.479  -0.858
   0.929   3.497  -0.858
   0.616   3.479  -0.858
   3.118  -1.049  -0.858
   3.300  -0.793  -0.858
   3.452  -0.518  -0.858
   3.572  -0.228  -0.858
   3.659   0.074  -0.858
   3.711   0.383  -0.858
   3.711   0.697  -1.171
   3.693   1.014  -1.171
   3.639   1.327  -1.171
   3.550   1.632  -1.171
   3.426   1.925  -1.171
   3.270   2.201  -1.171
   3.083   2.458  -1.171
   2.868   2.692  -1.171
   2.628   2.900  -1.171
   2.366   3.080  -1.171
   2.085   3.228  -1.171
   1.789   3.343  -1.171
   1.482   3.424  -1.171
   1.167   3.469  -1.171
   0.850   3.478  -1.171
   0.533   3.451  -1.171
   2.868  -1.298  -1.171
   3.083  -1.064  -1.171
   3.270  -0.807  -1.171
   3.426  -0.531  -1.171
   3.550  -0.238  -1.171
   3.639   0.067  -1.171
   3.693   0.380  -1.171
   3.659   0.697  -1.481
   3.640   1.014  -1.481
   3.585   1.327  -1.481
   3.494   1.631  -1.481
   3.368   1.922  -1.481
   3.210   2.197  -1.481
   3.020   2.452  -1.481
   2.802   2.683  -1.481
   2.559   2.887  -1.481
   2.294   3.061  -1.481
   2.010   3.204  -1.481
   1.712   3.312  -1.481
   1.403   3.385  -1.481
   1.088   3.422  -1.481
   0.770   3.422  -1.481
   0.455   3.385  -1.481
   0.146   3.312  -1.481
   2.802  -1.289  -1.481
   3.020  -1.058  -1.481
   3.210  -0.803  -1.481
   3.368  -0.528  -1.481
   3.494  -0.237  -1.481
   3.585   0.067  -1.481
   3.640   0.380  -1.481
   3.572   0.697  -1.783
   3.553   1.016  -1.783
   3.495   1.329  -1.783
   3.400   1.634  -1.783
   3.269   1.925  -1.783
   3.104   2.198  -1.783
   2.907   2.450  -1.783
   2.682   2.675  -1.783
   2.430   2.872  -1.783
   2.157   3.037  -1.783
   1.866   3.168  -1.783
   1.561   3.263  -1.783
   1.248   3.321  -1.783
   0.929   3.340  -1.783
   0.610   3.321  -1.783
   0.297   3.263  -1.783
  -0.008   3.168  -1.783
   2.430  -1.478  -1.783
   2.682  -1.281  -1.783
   2.907  -1.056  -1.783
   3.104  -0.804  -1.783
   3.269  -0.531  -1.783
   3.400  -0.240  -1.783
   3.495   0.065  -1.783
   3.553   0.378  -1.783
   3.452   0.697  -2.073
   3.432   1.013  -2.073
   3.372   1.324  -2.073
   3.275   1.626  -2.073
   3.140   1.912  -2.073
   2.970   2.180  -2.073
   2.768   2.424  -2.073
   2.537   2.641  -2.073
   2.281   2.827  -2.073
   2.003   2.980  -2.073
   1.709   3.096  -2.073
   1.402   3.175  -2.073
   1.087   3.215  -2.073
   0.771   3.215  -2.073
   0.456   3.175  -2.073
   0.149   3.096  -2.073
   2.281  -1.433  -2.073
   2.537  -1.247  -2.073
   2.768  -1.030  -2.073
   2.970  -0.786  -2.073
   3.140  -0.518  -2.073
   3.275  -0.232  -2.073
   3.372   0.070  -2.073
   3.432   0.381  -2.073
   3.300   0.697  -2.348
   3.279   1.013  -2.348
   3.216   1.323  -2.348
   3.112   1.623  -2.348
   2.969   1.905  -2.348
   2.790   2.166  -2.348
   2.577   2.401  -2.348
   2.335   2.606  -2.348
   2.068   2.776  -2.348
   1.781   2.909  -2.348
   1.479   3.003  -2.348
   1.166   3.056  -2.348
   0.850   3.067  -2.348
   0.535   3.035  -2.348
   0.227   2.961  -2.348
   1.781  -1.515  -2.348
   2.068  -1.382  -2.348
   2.335  -1.212  -2.348
   2.577  -1.007  -2.348
   2.790  -0.772  -2.348
   2.969  -0.511  -2.348
   3.112  -0.229  -2.348
   3.216   0.071  -2.348
   3.279   0.381  -2.348
   3.118   0.697  -2.604
   3.095   1.016  -2.604
   3.025   1.328  -2.604
   2.911   1.626  -2.604
   2.755   1.905  -2.604
   2.559   2.158  -2.604
   2.329   2.380  -2.604
   2.069   2.566  -2.604
   1.785   2.712  -2.604
   1.483   2.815  -2.604
   1.168   2.873  -2.604
   0.849   2.885  -2.604
   0.531   2.850  -2.604
   1.483  -1.421  -2.604
   1.785  -1.318  -2.604
   2.069  -1.172  -2.604
   2.329  -0.986  -2.604
   2.559  -0.764  -2.604
   2.755  -0.511  -2.604
   2.911  -0.232  -2.604
   3.025   0.066  -2.604
   3.095   0.378  -2.604
   2.909   0.697  -2.838
   2.883   1.015  -2.838
   2.807   1.324  -2.838
   2.682   1.617  -2.838
   2.512   1.886  -2.838
   2.301   2.125  -2.838
   2.054   2.326  -2.838
   1.778   2.486  -2.838
   1.480   2.599  -2.838
   1.168   2.662  -2.838
   0.849   2.675  -2.838
   0.533   2.637  -2.838
   1.168  -1.268  -2.838
   1.480  -1.205  -2.838
   1.778  -1.092  -2.838
   2.054  -0.932  -2.838
   2.301  -0.731  -2.838
   2.512  -0.492  -2.838
   2.682  -0.223  -2.838
   2.807   0.070  -2.838
   2.883   0.379  -2.838
   2.675   0.697  -3.047
   2.645   1.018  -3.047
   2.557   1.328  -3.047
   2.413   1.616  -3.047
   2.219   1.873  -3.047
   1.981   2.090  -3.047
   1.707   2.260  -3.047
   1.407   2.376  -3.047
   1.090   2.435  -3.047
   0.768   2.435  -3.047
   0.451   2.376  -3.047
   0.768  -1.041  -3.047
   1.090  -1.041  -3.047
   1.407  -0.982  -3.047
   1.707  -0.866  -3.047
   1.981  -0.696  -3.047
   2.219  -0.479  -3.047
   2.413  -0.222  -3.047
   2.557   0.066  -3.047
   2.645   0.376  -3.047
   2.419   0.697  -3.229
   2.384   1.017  -3.229
   2.281   1.323  -3.229
   2.115   1.599  -3.229
   1.893   1.832  -3.229
   1.627   2.013  -3.229
   1.328   2.132  -3.229
   1.010   2.185  -3.229
   0.688   2.167  -3.229
   0.378  -0.687  -3.229
   0.688  -0.773  -3.229
   1.010  -0.791  -3.229
   1.328  -0.738  -3.229
   1.627  -0.619  -3.229
   1.893  -0.438  -3.229
   2.115  -0.205  -3.229
   2.281   0.071  -3.229
   2.384   0.377  -3.229
   2.144   0.697  -3.381
   2.102   1.011  -3.381
   1.981   1.304  -3.381
   1.788   1.556  -3.381
   1.536   1.749  -3.381
   1.243   1.870  -3.381
   0.929   1.912  -3.381
   0.615   1.870  -3.381
   0.615  -0.476  -3.381
   0.929  -0.518  -3.381
   1.243  -0.476  -3.381
   1.536  -0.355  -3.381
   1.788  -0.162  -3.381
   1.981   0.090  -3.381
   2.102   0.383  -3.381
   1.854   0.697  -3.501
   1.798   1.013  -3.501
   1.637   1.291  -3.501
   1.391   1.498  -3.501
   1.090   1.608  -3.501
   0.768   1.608  -3.501
   0.467  -0.104  -3.501
   0.768  -0.214  -3.501
   1.090  -0.214  -3.501
   1.391  -0.104  -3.501
   1.637   0.103  -3.501
   1.798   0.381  -3.501
   1.552   0.697  -3.588
   1.469   1.009  -3.588
   1.241   1.237  -3.588
   0.929   1.320  -3.588
   0.617   0.157  -3.588
   0.929   0.074  -3.588
   1.241   0.157  -3.588
   1.469   0.385  -3.588
   1.243   0.697  -3.640
   1.086   0.969  -3.640
   0.772   0.969  -3.640
   0.615   0.697  -3.640
   0.772   0.425  -3.640
   1.086   0.425  -3.640
   0.929   0.697  -3.658
  -0.007  -2.049   2.981
   0.312  -2.135   2.981
   0.631  -2.049   2.981
   0.865  -1.815   2.981
  -0.414  -2.105   2.892
  -0.162  -2.317   2.892
   0.147  -2.429   2.892
   0.477  -2.430   2.892
   0.786  -2.317   2.892
   1.038  -2.105   2.892
   1.203  -1.820   2.892
   1.557  -1.496   2.769
  -0.766  -2.119   2.769
  -0.569  -2.377   2.769
  -0.311  -2.574   2.769
  -0.010  -2.699   2.769
   0.312  -2.741   2.769
   0.634  -2.699   2.769
   0.935  -2.574   2.769
   1.193  -2.377   2.769
   1.390  -2.119   2.769
   1.515  -1.818   2.769
   1.839  -1.496   2.613
  -1.135  -1.984   2.613
  -0.996  -2.283   2.613
  -0.797  -2.546   2.613
  -0.545  -2.760   2.613
  -0.253  -2.914   2.613
   0.065  -3.003   2.613
   0.395  -3.021   2.613
   0.720  -2.967   2.613
   1.027  -2.845   2.613
   1.301  -2.660   2.613
   1.528  -2.420   2.613
   1.698  -2.137   2.613
   1.803  -1.824   2.613
   2.101  -1.496   2.427
   2.071  -1.167   2.427
  -1.357  -2.142   2.427
  -1.209  -2.438   2.427
  -1.010  -2.702   2.427
  -0.766  -2.924   2.427
  -0.486  -3.098   2.427
  -0.178  -3.217   2.427
   0.147  -3.278   2.427
   0.477  -3.278   2.427
   0.802  -3.217   2.427
   1.110  -3.098   2.427
   1.390  -2.924   2.427
   1.634  -2.702   2.427
   1.833  -2.438   2.427
   1.981  -2.142   2.427
   2.071  -1.825   2.427
   2.341  -1.496   2.212
   2.315  -1.170   2.212
  -1.658  -1.982   2.212
  -1.555  -2.291   2.212
  -1.403  -2.581   2.212
  -1.207  -2.842   2.212
  -0.971  -3.068   2.212
  -0.703  -3.254   2.212
  -0.408  -3.394   2.212
  -0.094  -3.484   2.212
   0.230  -3.524   2.212
   0.557  -3.511   2.212
   0.877  -3.445   2.212
   1.182  -3.329   2.212
   1.465  -3.166   2.212
   1.718  -2.960   2.212
   1.934  -2.715   2.212
   2.109  -2.439   2.212
   2.237  -2.139   2.212
   2.315  -1.822   2.212
   2.556  -1.496   1.972
   2.532  -1.169   1.972
   2.461  -0.850   1.972
  -1.878  -1.984   1.972
  -1.784  -2.298   1.972
  -1.645  -2.594   1.972
  -1.464  -2.867   1.972
  -1.245  -3.111   1.972
  -0.994  -3.321   1.972
  -0.714  -3.492   1.972
  -0.413  -3.620   1.972
  -0.096  -3.703   1.972
   0.230  -3.738   1.972
   0.557  -3.726   1.972
   0.880  -3.667   1.972
   1.190  -3.561   1.972
   1.481  -3.411   1.972
   1.747  -3.221   1.972
   1.983  -2.993   1.972
   2.183  -2.734   1.972
   2.344  -2.448   1.972
   2.461  -2.142   1.972
   2.532  -1.823   1.972
   2.742  -1.496   1.710
   2.720  -1.172   1.710
   2.656  -0.854   1.710
  -2.069  -1.980   1.710
  -1.984  -2.293   1.710
  -1.857  -2.592   1.710
  -1.691  -2.871   1.710
  -1.490  -3.126   1.710
  -1.257  -3.352   1.710
  -0.996  -3.544   1.710
  -0.711  -3.700   1.710
  -0.408  -3.817   1.710
  -0.092  -3.892   1.710
   0.231  -3.925   1.710
   0.555  -3.914   1.710
   0.875  -3.860   1.710
   1.185  -3.764   1.710
   1.480  -3.627   1.710
   1.753  -3.452   1.710
   2.001  -3.243   1.710
   2.219  -3.002   1.710
   2.403  -2.734   1.710
   2.549  -2.445   1.710
   2.656  -2.138   1.710
   2.720  -1.820   1.710
   2.898  -1.496   1.428
   2.877  -1.172   1.428
   2.817  -0.853   1.428
  -2.193  -2.139   1.428
  -2.092  -2.448   1.428
  -1.954  -2.742   1.428
  -1.780  -3.016   1.428
  -1.573  -3.266   1.428
  -1.336  -3.488   1.428
  -1.074  -3.679   1.428
  -0.789  -3.836   1.428
  -0.487  -3.955   1.428
  -0.173  -4.036   1.428
   0.150  -4.077   1.428
   0.474  -4.077   1.428
   0.797  -4.036   1.428
   1.111  -3.955   1.428
   1.413  -3.836   1.428
   1.698  -3.679   1.428
   1.960  -3.488   1.428
   2.197  -3.266   1.428
   2.404  -3.016   1.428
   2.578  -2.742   1.428
   2.716  -2.448   1.428
   2.817  -2.139   1.428
   2.877  -1.820   1.428
   3.021  -1.496   1.131
   3.001  -1.169   1.131
   2.942  -0.848   1.131
  -2.221  -2.457   1.131
  -2.087  -2.755   1.131
  -1.917  -3.035   1.131
  -1.716  -3.292   1.131
  -1.484  -3.524   1.131
  -1.227  -3.725   1.131
  -0.947  -3.895   1.131
  -0.649  -4.029   1.131
  -0.336  -4.126   1.131
  -0.015  -4.185   1.131
   0.312  -4.205   1.131
   0.639  -4.185   1.131
   0.960  -4.126   1.131
   1.273  -4.029   1.131
   1.571  -3.895   1.131
   1.851  -3.725   1.131
   2.108  -3.524   1.131
   2.340  -3.292   1.131
   2.541  -3.035   1.131
   2.711  -2.755   1.131
   2.845  -2.457   1.131
   2.942  -2.144   1.131
   3.001  -1.823   1.131
   3.110  -1.496   0.822
   3.091  -1.171   0.822
   3.035  -0.851   0.822
  -2.317  -2.453   0.822
  -2.188  -2.752   0.822
  -2.026  -3.034   0.822
  -1.831  -3.295   0.822
  -1.608  -3.531   0.822
  -1.359  -3.740   0.822
  -1.087  -3.919   0.822
  -0.796  -4.065   0.822
  -0.490  -4.176   0.822
  -0.174  -4.252   0.822
   0.149  -4.289   0.822
   0.475  -4.289   0.822
   0.798  -4.252   0.822
   1.114  -4.176   0.822
   1.420  -4.065   0.822
   1.711  -3.919   0.822
   1.983  -3.740   0.822
   2.232  -3.531   0.822
   2.455  -3.295   0.822
   2.650  -3.034   0.822
   2.812  -2.752   0.822
   2.941  -2.453   0.822
   3.035  -2.141   0.822
   3.091  -1.821   0.822
   3.164  -1.496   0.504
   3.145  -1.171   0.504
  -2.315  -2.606   0.504
  -2.171  -2.898   0.504
  -1.995  -3.172   0.504
  -1.789  -3.424   0.504
  -1.556  -3.651   0.504
  -1.298  -3.850   0.504
  -1.019  -4.018   0.504
  -0.723  -4.154   0.504
  -0.413  -4.254   0.504
  -0.094  -4.319   0.504
   0.231  -4.347   0.504
   0.556  -4.337   0.504
   0.878  -4.291   0.504
   1.193  -4.208   0.504
   1.497  -4.090   0.504
   1.785  -3.938   0.504
   2.054  -3.754   0.504
   2.300  -3.541   0.504
   2.520  -3.301   0.504
   2.711  -3.038   0.504
   2.871  -2.754   0.504
   2.998  -2.454   0.504
   3.090  -2.142   0.504
   3.145  -1.821   0.504
   3.182  -1.496   0.183
   3.164  -1.175   0.183
  -2.274  -2.741   0.183
  -2.118  -3.023   0.183
  -1.932  -3.285   0.183
  -1.717  -3.525   0.183
  -1.477  -3.740   0.183
  -1.215  -3.926   0.183
  -0.933  -4.082   0.183
  -0.636  -4.205   0.183
  -0.327  -4.294   0.183
  -0.009  -4.348   0.183
   0.312  -4.366   0.183
   0.633  -4.348   0.183
   0.951  -4.294   0.183
   1.260  -4.205   0.183
   1.557  -4.082   0.183
   1.839  -3.926   0.183
   2.101  -3.740   0.183
   2.341  -3.525   0.183
   2.556  -3.285   0.183
   2.742  -3.023   0.183
   2.898  -2.741   0.183
   3.021  -2.444   0.183
   3.110  -2.135   0.183
   3.164  -1.817   0.183
   3.164  -1.496  -0.138
   3.145  -1.171  -0.138
  -2.171  -2.898  -0.138
  -1.995  -3.172  -0.138
  -1.789  -3.424  -0.138
  -1.556  -3.651  -0.138
  -1.298  -3.850  -0.138
  -1.019  -4.018  -0.138
  -0.723  -4.154  -0.138
  -0.413  -4.254  -0.138
  -0.094  -4.319  -0.138
   0.231  -4.347  -0.138
   0.556  -4.337  -0.138
   0.878  -4.291  -0.138
   1.193  -4.208  -0.138
   1.497  -4.090  -0.138
   1.785  -3.938  -0.138
   2.054  -3.754  -0.138
   2.300  -3.541  -0.138
   2.520  -3.301  -0.138
   2.711  -3.038  -0.138
   2.871  -2.754  -0.138
   2.998  -2.454  -0.138
   3.090  -2.142  -0.138
   3.145  -1.821  -0.138
   3.110  -1.496  -0.456
   3.091  -1.171  -0.456
  -2.026  -3.034  -0.456
  -1.831  -3.295  -0.456
  -1.608  -3.531  -0.456
  -1.359  -3.740  -0.456
  -1.087  -3.919  -0.456
  -0.796  -4.065  -0.456
  -0.490  -4.176  -0.456
  -0.174  -4.252  -0.456
   0.149  -4.289  -0.456
   0.475  -4.289  -0.456
   0.798  -4.252  -0.456
   1.114  -4.177  -0.456
   1.420  -4.065  -0.456
   1.711  -3.919  -0.456
   1.983  -3.740  -0.456
   2.232  -3.531  -0.456
   2.455  -3.295  -0.456
   2.650  -3.034  -0.456
   2.812  -2.752  -0.456
   2.941  -2.453  -0.456
   3.035  -2.141  -0.456
   3.091  -1.821  -0.456
   3.021  -1.496  -0.765
  -1.917  -3.035  -0.765
  -1.716  -3.292  -0.765
  -1.484  -3.524  -0.765
  -1.227  -3.725  -0.765
  -0.947  -3.895  -0.765
  -0.649  -4.029  -0.765
  -0.336  -4.126  -0.765
  -0.015  -4.185  -0.765
   0.312  -4.205  -0.765
   0.639  -4.185  -0.765
   0.960  -4.126  -0.765
   1.273  -4.029  -0.765
   1.571  -3.895  -0.765
   1.851  -3.725  -0.765
   2.108  -3.524  -0.765
   2.340  -3.292  -0.765
   2.541  -3.035  -0.765
   2.711  -2.755  -0.765
   2.845  -2.457  -0.765
   2.942  -2.144  -0.765
   3.001  -1.823  -0.765
   2.898  -1.496  -1.062
  -1.780  -3.016  -1.062
  -1.573  -3.266  -1.062
  -1.336  -3.488  -1.062
  -1.074  -3.679  -1.062
  -0.789  -3.836  -1.062
  -0.487  -3.955  -1.062
  -0.173  -4.036  -1.062
   0.150  -4.077  -1.062
   0.474  -4.077  -1.062
   0.797  -4.036  -1.062
   1.111  -3.955  -1.062
   1.413  -3.836  -1.062
   1.698  -3.679  -1.062
   1.960  -3.488  -1.062
   2.197  -3.266  -1.062
   2.404  -3.016  -1.062
   2.578  -2.742  -1.062
   2.716  -2.448  -1.062
   2.817  -2.139  -1.062
   2.877  -1.820  -1.062
   2.742  -1.496  -1.344
  -1.691  -2.871  -1.344
  -1.490  -3.126  -1.344
  -1.257  -3.352  -1.344
  -0.996  -3.544  -1.344
  -0.711  -3.700  -1.344
  -0.408  -3.817  -1.344
  -0.092  -3.892  -1.344
   0.231  -3.925  -1.344
   0.555  -3.914  -1.344
   0.875  -3.860  -1.344
   1.185  -3.764  -1.344
   1.480  -3.627  -1.344
   1.753  -3.452  -1.344
   2.001  -3.243  -1.344
   2.219  -3.002  -1.344
   2.403  -2.734  -1.344
   2.549  -2.445  -1.344
   2.656  -2.138  -1.344
   2.720  -1.820  -1.344
   2.556  -1.496  -1.606
  -1.464  -2.867  -1.606
  -1.245  -3.111  -1.606
  -0.994  -3.321  -1.606
  -0.714  -3.492  -1.606
  -0.413  -3.620  -1.606
  -0.096  -3.703  -1.606
   0.230  -3.738  -1.606
   0.557  -3.726  -1.606
   0.880  -3.667  -1.606
   1.190  -3.561  -1.606
   1.481  -3.411  -1.606
   1.747  -3.221  -1.606
   1.983  -2.993  -1.606
   2.183  -2.734  -1.606
   2.344  -2.448  -1.606
   2.461  -2.142  -1.606
   2.532  -1.823  -1.606
  -1.207  -2.842  -1.846
  -0.971  -3.068  -1.846
  -0.703  -3.254  -1.846
  -0.408  -3.394  -1.846
  -0.094  -3.484  -1.846
   0.230  -3.524  -1.846
   0.557  -3.511  -1.846
   0.877  -3.445  -1.846
   1.182  -3.329  -1.846
   1.465  -3.166  -1.846
   1.718  -2.960  -1.846
   1.934  -2.715  -1.846
   2.109  -2.439  -1.846
   2.237  -2.139  -1.846
   2.315  -1.822  -1.846
  -1.010  -2.702  -2.061
  -0.766  -2.924  -2.061
  -0.486  -3.098  -2.061
  -0.178  -3.217  -2.061
   0.147  -3.278  -2.061
   0.477  -3.278  -2.061
   0.802  -3.217  -2.061
   1.110  -3.098  -2.061
   1.390  -2.924  -2.061
   1.634  -2.702  -2.061
   1.833  -2.438  -2.061
   1.981  -2.142  -2.061
   2.071  -1.825  -2.061
  -0.797  -2.546  -2.247
  -0.545  -2.760  -2.247
  -0.253  -2.914  -2.247
   0.065  -3.003  -2.247
   0.395  -3.021  -2.247
   0.720  -2.967  -2.247
   1.027  -2.845  -2.247
   1.301  -2.660  -2.247
   1.528  -2.420  -2.247
   1.698  -2.137  -2.247
   1.803  -1.824  -2.247
  -0.569  -2.377  -2.403
  -0.311  -2.574  -2.403
  -0.010  -2.699  -2.403
   0.312  -2.741  -2.403
   0.634  -2.699  -2.403
   0.935  -2.574  -2.403
   1.193  -2.377  -2.403
   1.390  -2.119  -2.403
   1.515  -1.818  -2.403
  -0.162  -2.317  -2.526
   0.147  -2.430  -2.526
   0.477  -2.430  -2.526
   0.786  -2.317  -2.526
   1.038  -2.105  -2.526
   1.203  -1.820  -2.526
  -0.007  -2.049  -2.615
   0.312  -2.135  -2.615
   0.631  -2.049  -2.615
  -2.958   0.000   1.771
  -2.958  -0.322   1.771
  -2.889  -0.637   1.771
  -2.753  -0.929   1.771
  -2.559  -1.185   1.771
  -3.105   0.470   1.589
  -3.193   0.160   1.589
  -3.223  -0.161   1.589
  -3.193  -0.482   1.589
  -3.105  -0.792   1.589
  -2.961  -1.080   1.589
  -2.767  -1.337   1.589
  -2.529  -1.554   1.589
  -3.450  -0.002   1.380
  -3.450  -0.320   1.380
  -3.399  -0.635   1.380
  -3.298  -0.937   1.380
  -3.150  -1.219   1.380
  -2.959  -1.474   1.380
  -2.729  -1.695   1.380
  -2.467  -1.876   1.380
  -3.660  -0.321   1.146
  -3.614  -0.637   1.146
  -3.522  -0.943   1.146
  -3.386  -1.232   1.146
  -3.210  -1.499   1.146
  -2.996  -1.737   1.146
  -2.751  -1.941   1.146
  -2.478  -2.108   1.146
  -3.800  -0.633   0.890
  -3.717  -0.939   0.890
  -3.593  -1.230   0.890
  -3.432  -1.503   0.890
  -3.235  -1.751   0.890
  -3.008  -1.971   0.890
  -2.753  -2.159   0.890
  -2.475  -2.312   0.890
  -3.920  -0.788   0.615
  -3.823  -1.090   0.615
  -3.688  -1.376   0.615
  -3.518  -1.644   0.615
  -3.316  -1.888   0.615
  -3.085  -2.105   0.615
  -2.829  -2.291   0.615
  -2.551  -2.444   0.615
  -3.817  -1.389   0.325
  -3.652  -1.662   0.325
  -3.455  -1.914   0.325
  -3.230  -2.139   0.325
  -2.978  -2.336   0.325
  -2.705  -2.501   0.325
  -2.414  -2.632   0.325
  -3.758  -1.661   0.023
  -3.568  -1.916   0.023
  -3.350  -2.147   0.023
  -3.107  -2.351   0.023
  -2.842  -2.525   0.023
  -2.558  -2.668   0.023
  -2.260  -2.776   0.023
  -3.728  -1.796  -0.286
  -3.527  -2.042  -0.286
  -3.299  -2.264  -0.286
  -3.048  -2.458  -0.286
  -2.775  -2.622  -0.286
  -2.486  -2.754  -0.286
  -2.184  -2.852  -0.286
  -3.666  -1.907  -0.600
  -3.457  -2.141  -0.600
  -3.223  -2.350  -0.600
  -2.967  -2.532  -0.600
  -2.692  -2.684  -0.600
  -2.402  -2.804  -0.600
  -2.100  -2.891  -0.600
  -3.527  -2.042  -0.913
  -3.299  -2.264  -0.913
  -3.048  -2.458  -0.913
  -2.775  -2.622  -0.913
  -2.486  -2.754  -0.913
  -2.184  -2.852  -0.913
  -3.350  -2.147  -1.223
  -3.107  -2.351  -1.223
  -2.842  -2.525  -1.223
  -2.558  -2.668  -1.223
  -2.260  -2.776  -1.223
  -1.951  -2.849  -1.223
  -2.978  -2.336  -1.525
  -2.705  -2.501  -1.525
  -2.414  -2.632  -1.525
  -2.109  -2.727  -1.525
  -1.796  -2.785  -1.525
  -2.829  -2.291  -1.815
  -2.551  -2.444  -1.815
  -2.257  -2.560  -1.815
  -1.950  -2.639  -1.815
  -1.635  -2.679  -1.815
  -2.753  -2.159  -2.090
  -2.475  -2.312  -2.090
  -2.179  -2.425  -2.090
  -1.871  -2.499  -2.090
  -1.556  -2.531  -2.090
  -1.240  -2.520  -2.090
  -2.478  -2.108  -2.346
  -2.184  -2.233  -2.346
  -1.875  -2.314  -2.346
  -1.557  -2.349  -2.346
  -1.238  -2.337  -2.346
  -0.923  -2.279  -2.346
  -2.179  -2.012  -2.580
  -1.873  -2.101  -2.580
  -1.557  -2.139  -2.580
  -1.238  -2.126  -2.580
  -0.926  -2.063  -2.580
  -1.638  -1.899  -2.789
  -1.316  -1.899  -2.789
  -0.999  -1.840  -2.789
  -0.699  -1.724  -2.789
  -1.078  -1.596  -2.971
  -0.779  -1.477  -2.971
  -3.176   0.856   1.549
  -3.497   0.856   1.416
  -3.451   0.508   1.416
  -3.792   1.034   1.248
  -3.792   0.678   1.248
  -3.715   0.329   1.248
  -4.052   1.211   1.047
  -4.085   0.856   1.047
  -4.052   0.501   1.047
  -3.954   0.158   1.047
  -3.795  -0.161   1.047
  -4.280   1.381   0.815
  -4.337   1.032   0.815
  -4.337   0.680   0.815
  -4.280   0.331   0.815
  -4.169  -0.003   0.815
  -4.005  -0.316   0.815
  -4.416   1.722   0.556
  -4.518   1.383   0.556
  -4.569   1.033   0.556
  -4.632   1.717   0.272
  -4.749   1.884  -0.032
  -4.743   2.216  -0.353
  -4.853   2.212  -0.687
  -4.834   2.371  -1.030
  -4.576   2.789  -1.377
  -4.777   2.505  -1.377
  -4.422   2.939  -1.724
  -4.644   2.667  -1.724
  -0.078   3.054  -2.067
  -0.347   3.280  -2.067
  -0.641   3.473  -2.067
  -3.957   3.280  -2.067
  -4.226   3.054  -2.067
  -4.467   2.799  -2.067
  -4.677   2.517  -2.067
  -0.792   3.447  -2.401
  -1.114   3.592  -2.401
  -3.512   3.447  -2.401
  -3.814   3.264  -2.401
  -4.092   3.046  -2.401
  -4.342   2.796  -2.401
  -4.560   2.518  -2.401
  -2.505  -2.049  -2.401
  -1.629   3.600  -2.722
  -1.977   3.643  -2.722
  -2.327   3.643  -2.722
  -2.675   3.600  -2.722
  -3.015   3.512  -2.722
  -3.341   3.383  -2.722
  -3.649   3.214  -2.722
  -3.932   3.008  -2.722
  -4.188   2.768  -2.722
  -4.412   2.498  -2.722
  -2.675  -1.888  -2.722
  -2.327  -1.931  -2.722
  -1.977  -1.931  -2.722
  -1.889   3.468  -3.026
  -2.240   3.479  -3.026
  -2.589   3.444  -3.026
  -2.930   3.363  -3.026
  -3.257   3.237  -3.026
  -3.564   3.068  -3.026
  -3.847   2.860  -3.026
  -4.099   2.617  -3.026
  -4.316   2.342  -3.026
  -2.589  -1.732  -3.026
  -2.240  -1.767  -3.026
  -1.889  -1.756  -3.026
  -1.544  -1.697  -3.026
  -1.209  -1.593  -3.026
  -0.891  -1.446  -3.026
  -2.592   3.239  -3.310
  -2.935   3.150  -3.310
  -3.260   3.011  -3.310
  -3.562   2.827  -3.310
  -3.834   2.601  -3.310
  -4.070   2.337  -3.310
  -4.266   2.042  -3.310
  -2.592  -1.527  -3.310
  -2.241  -1.566  -3.310
  -1.887  -1.553  -3.310
  -1.539  -1.489  -3.310
  -2.929   2.906  -3.569
  -3.248   2.754  -3.569
  -3.538   2.554  -3.569
  -3.793   2.310  -3.569
  -4.005   2.028  -3.569
  -2.929  -1.194  -3.569
  -2.590  -1.292  -3.569
  -2.240  -1.334  -3.569
  -1.888  -1.320  -3.569
  -3.317   2.398  -3.801
  -3.580   2.158  -3.801
  -3.795   1.874  -3.801
  -3.954   1.554  -3.801
  -3.014  -0.874  -3.801
  -2.681  -1.003  -3.801
  -2.330  -1.069  -3.801
  -3.349   1.990  -4.002
  -3.565   1.706  -4.002
  -3.715   1.383  -4.002
  -3.078  -0.509  -4.002
  -2.762  -0.676  -4.002
  -3.451   1.204  -4.170
  -3.497   0.856  -4.170
  -3.451   0.508  -4.170
  -3.317   0.183  -4.170
  -3.103  -0.095  -4.170
  -4.640   2.090   0.031
  -4.670   2.379  -0.249
  -4.683   2.522  -0.537
  -4.658   2.653  -0.828
  -4.584   2.800  -1.119
  -4.322   3.187  -1.407
  -4.469   2.932  -1.407
  -4.041   3.421  -1.687
  -4.224   3.188  -1.687
  -3.697   3.599  -1.956
  -3.912   3.398  -1.956
  -0.898   3.566  -2.211
  -3.389   3.650  -2.211
  -3.625   3.475  -2.211
  -1.690   3.761  -2.449
  -2.573   3.793  -2.449