 $system timlim=999888777
         mwords=100 $end
 $contrl exetyp=run
         runtyp=energy scftyp=rhf
         icharg=-1 mult=1 units=angs coord=unique
         maxit=50 ispher=1 qmttol=1d-6 icut=12 itol=22 $end
 $scf    dirscf=.t. diis=.t. soscf=.f.
         fdiff=.f. conv=1d-6
         npreo(1)=0,-1,1,9999 $end
 $elpot  iepot=1 where=points $end
 $basis  gbasis=n311 ngauss=6
         ndfunc=1 npfunc=1 diffsp=.t. diffs=.t. $end
 $DATA
TS1a_hfd_irc200_all_revmov.pdb
C1
P     15.0    -0.04200   0.00900  -0.02400 
O      8.0    -0.13000   0.39600   1.48000 
O      8.0     0.92400   0.72200  -0.84000 
F      9.0     0.32300  -1.50100   0.14400 
O      8.0    -1.47700  -0.16100  -0.60000 
C      6.0    -2.15200   0.85600  -1.37700 
H      1.0    -2.18200   1.80000  -0.83500 
H      1.0    -1.63500   0.95800  -2.32200 
H      1.0    -3.14400   0.46000  -1.54000 
C      6.0     0.01300   1.75200   1.96700 
H      1.0    -0.18700   1.68400   3.02600 
H      1.0     1.03700   2.06400   1.80300 
H      1.0    -0.69000   2.41600   1.46800 
O      8.0    -2.00400   3.34900   0.35200 
H      1.0    -1.91300   4.24500   0.05300 
 $END
 $POINTS
ANGS 3133
  -2.084  -1.568   2.034
  -1.833  -1.848   2.034
   2.429  -0.734   2.034
   2.511  -0.367   2.034
   2.752   0.009   1.732
  -2.346  -1.572   1.732
  -2.114  -1.865   1.732
   2.653  -0.729   1.732
   2.727  -0.363   1.732
   2.931   0.009   1.408
  -2.209  -2.026   1.408
   2.838  -0.730   1.408
   2.908  -0.364   1.408
   3.073   0.009   1.066
   3.050   0.384   1.066
   2.982  -0.736   1.066
   3.050  -0.366   1.066
   3.175   0.009   0.710
   3.089  -0.733   0.710
   3.154  -0.365   0.710
   3.152  -0.734   0.345
  -0.605  -1.970  -2.604
   1.198  -1.633  -2.604
  -0.326  -1.724  -2.818
   0.053  -1.744  -2.818
   0.428  -1.683  -2.818
   0.780  -1.542  -2.818
   1.095  -1.329  -2.818
  -0.413  -1.374  -2.997
  -0.042  -1.423  -2.997
   0.329  -1.374  -2.997
   0.674  -1.231  -2.997
   0.147  -1.064  -3.139
   0.503  -0.935  -3.139
   0.325  -0.627  -3.241
  -0.444  -0.777   4.003
  -0.130  -0.819   4.003
   0.184  -0.777   4.003
   0.477  -0.656   4.003
  -1.212  -0.628   3.851
  -0.966  -0.837   3.851
  -0.681  -0.988   3.851
  -0.371  -1.074   3.851
  -0.049  -1.092   3.851
   0.269  -1.039   3.851
   0.568  -0.920   3.851
   0.834  -0.739   3.851
   1.056  -0.506   3.851
  -1.614  -0.523   3.669
  -1.420  -0.780   3.669
  -1.182  -0.997   3.669
  -0.908  -1.167   3.669
  -0.608  -1.283   3.669
  -0.291  -1.342   3.669
   0.031  -1.342   3.669
   0.348  -1.283   3.669
   0.648  -1.167   3.669
   0.922  -0.997   3.669
   1.160  -0.780   3.669
   1.354  -0.523   3.669
  -2.052  -0.078   3.460
  -1.951  -0.380   3.460
  -1.803  -0.662   3.460
  -1.612  -0.917   3.460
  -1.382  -1.138   3.460
  -1.120  -1.319   3.460
  -0.832  -1.455   3.460
  -0.526  -1.544   3.460
  -0.210  -1.582   3.460
   0.109  -1.569   3.460
   0.421  -1.506   3.460
   0.719  -1.393   3.460
   0.995  -1.233   3.460
   1.242  -1.032   3.460
   1.453  -0.793   3.460
   1.623  -0.524   3.460
  -2.267  -0.080   3.226
  -2.175  -0.386   3.226
  -2.039  -0.675   3.226
  -1.863  -0.942   3.226
  -1.649  -1.180   3.226
  -1.404  -1.384   3.226
  -1.131  -1.551   3.226
  -0.837  -1.676   3.226
  -0.528  -1.757   3.226
  -0.210  -1.792   3.226
   0.109  -1.780   3.226
   0.424  -1.722   3.226
   0.726  -1.619   3.226
   1.010  -1.473   3.226
   1.270  -1.287   3.226
   1.500  -1.065   3.226
   1.696  -0.812   3.226
   1.852  -0.533   3.226
  -2.453  -0.076   2.970
  -2.370  -0.382   2.970
  -2.246  -0.673   2.970
  -2.085  -0.946   2.970
  -1.888  -1.194   2.970
  -1.661  -1.414   2.970
  -1.406  -1.602   2.970
  -1.128  -1.755   2.970
  -0.832  -1.868   2.970
  -0.524  -1.942   2.970
  -0.209  -1.974   2.970
   0.107  -1.963   2.970
   0.722  -1.816   2.970
   1.009  -1.683   2.970
   1.276  -1.513   2.970
   1.518  -1.308   2.970
   1.731  -1.073   2.970
   1.910  -0.812   2.970
   2.053  -0.530   2.970
  -2.633   0.080   2.695
  -2.573  -0.231   2.695
  -2.476  -0.533   2.695
  -2.341  -0.819   2.695
  -2.171  -1.087   2.695
  -1.969  -1.331   2.695
  -1.738  -1.548   2.695
  -1.482  -1.734   2.695
  -1.204  -1.887   2.695
  -0.910  -2.003   2.695
   1.709  -1.331   2.695
   1.911  -1.087   2.695
   2.081  -0.819   2.695
   2.216  -0.533   2.695
   2.313  -0.231   2.695
  -2.773   0.396   2.405
  -2.754   0.077   2.405
  -2.696  -0.236   2.405
  -2.601  -0.541   2.405
  -2.470  -0.832   2.405
  -2.305  -1.105   2.405
  -2.108  -1.357   2.405
  -1.883  -1.582   2.405
  -1.631  -1.779   2.405
   2.210  -0.832   2.405
   2.341  -0.541   2.405
   2.436  -0.236   2.405
  -2.860   0.396   2.103
  -2.841   0.079   2.103
  -2.786  -0.234   2.103
  -2.695  -0.538   2.103
  -2.569  -0.829   2.103
  -2.411  -1.104   2.103
  -2.221  -1.359   2.103
  -2.003  -1.590   2.103
   2.435  -0.538   2.103
   2.526  -0.234   2.103
  -2.908   0.555   1.794
  -2.908   0.237   1.794
   3.113   0.722   0.906
   3.295   0.722   0.650
   3.274   1.038   0.650
   3.211   0.096   0.650
   3.274   0.406   0.650
   3.447   0.722   0.375
   3.427   1.038   0.375
   3.367   1.349   0.375
   3.270   1.651   0.375
   3.270  -0.207   0.375
   3.367   0.095   0.375
   3.427   0.406   0.375
   3.567   0.722   0.085
   3.548   1.041   0.085
   3.490   1.354   0.085
   3.395   1.659   0.085
   3.264   1.950   0.085
   3.099   2.223   0.085
   3.264  -0.506   0.085
   3.395  -0.215   0.085
   3.490   0.090   0.085
   3.548   0.403   0.085
   3.654   0.722  -0.217
   3.635   1.039  -0.217
   3.580   1.352  -0.217
   3.489   1.656  -0.217
   3.363   1.947  -0.217
   3.205   2.222  -0.217
   3.015   2.477  -0.217
   2.797   2.708  -0.217
   2.554   2.912  -0.217
   3.205  -0.778  -0.217
   3.363  -0.503  -0.217
   3.489  -0.212  -0.217
   3.580   0.092  -0.217
   3.635   0.405  -0.217
   3.706   0.722  -0.526
   3.688   1.039  -0.526
   3.634   1.352  -0.526
   3.545   1.657  -0.526
   3.421   1.950  -0.526
   3.265   2.226  -0.526
   3.078   2.483  -0.526
   2.863   2.717  -0.526
   2.623   2.925  -0.526
   2.361   3.105  -0.526
   2.080   3.253  -0.526
   1.784   3.368  -0.526
   1.477   3.449  -0.526
   1.162   3.494  -0.526
   0.845   3.503  -0.526
   3.078  -1.039  -0.526
   3.265  -0.782  -0.526
   3.421  -0.506  -0.526
   3.545  -0.213  -0.526
   3.634   0.092  -0.526
   3.688   0.405  -0.526
   3.724   0.722  -0.840
   3.706   1.036  -0.840
   3.654   1.345  -0.840
   3.567   1.647  -0.840
   3.447   1.937  -0.840
   3.295   2.212  -0.840
   3.113   2.468  -0.840
   2.904   2.702  -0.840
   2.670   2.911  -0.840
   2.414   3.093  -0.840
   2.139   3.245  -0.840
   1.849   3.365  -0.840
   1.547   3.452  -0.840
   1.238   3.504  -0.840
   0.924   3.522  -0.840
   0.611   3.504  -0.840
   3.113  -1.024  -0.840
   3.295  -0.768  -0.840
   3.447  -0.493  -0.840
   3.567  -0.203  -0.840
   3.654   0.099  -0.840
   3.706   0.408  -0.840
   3.706   0.722  -1.153
   3.688   1.039  -1.153
   3.634   1.352  -1.153
   3.545   1.657  -1.153
   3.421   1.950  -1.153
   3.265   2.226  -1.153
   3.078   2.483  -1.153
   2.863   2.717  -1.153
   2.623   2.925  -1.153
   2.361   3.105  -1.153
   2.080   3.253  -1.153
   1.784   3.368  -1.153
   1.477   3.449  -1.153
   1.162   3.494  -1.153
   0.845   3.503  -1.153
   0.528   3.476  -1.153
   3.078  -1.039  -1.153
   3.265  -0.782  -1.153
   3.421  -0.506  -1.153
   3.545  -0.213  -1.153
   3.634   0.092  -1.153
   3.688   0.405  -1.153
   3.654   0.722  -1.463
   3.635   1.039  -1.463
   3.580   1.352  -1.463
   3.489   1.656  -1.463
   3.363   1.947  -1.463
   3.205   2.222  -1.463
   3.015   2.477  -1.463
   2.797   2.708  -1.463
   2.554   2.912  -1.463
   2.289   3.086  -1.463
   2.005   3.229  -1.463
   1.707   3.337  -1.463
   1.398   3.410  -1.463
   1.083   3.447  -1.463
   0.765   3.447  -1.463
   0.450   3.410  -1.463
   0.141   3.337  -1.463
   2.797  -1.264  -1.463
   3.015  -1.033  -1.463
   3.205  -0.778  -1.463
   3.363  -0.503  -1.463
   3.489  -0.212  -1.463
   3.580   0.092  -1.463
   3.635   0.405  -1.463
   3.567   0.722  -1.765
   3.548   1.041  -1.765
   3.490   1.354  -1.765
   3.395   1.659  -1.765
   3.264   1.950  -1.765
   3.099   2.223  -1.765
   2.902   2.475  -1.765
   2.677   2.700  -1.765
   2.425   2.897  -1.765
   2.152   3.062  -1.765
   1.861   3.193  -1.765
   1.556   3.288  -1.765
   1.243   3.346  -1.765
   0.924   3.365  -1.765
   0.605   3.346  -1.765
   0.292   3.288  -1.765
  -0.013   3.193  -1.765
   2.677  -1.256  -1.765
   2.902  -1.031  -1.765
   3.099  -0.779  -1.765
   3.264  -0.506  -1.765
   3.395  -0.215  -1.765
   3.490   0.090  -1.765
   3.548   0.403  -1.765
   3.447   0.722  -2.055
   3.427   1.038  -2.055
   3.367   1.349  -2.055
   3.270   1.651  -2.055
   3.135   1.937  -2.055
   2.965   2.205  -2.055
   2.763   2.449  -2.055
   2.532   2.666  -2.055
   2.276   2.852  -2.055
   1.998   3.005  -2.055
   1.704   3.121  -2.055
   1.397   3.200  -2.055
   1.082   3.240  -2.055
   0.766   3.240  -2.055
   0.451   3.200  -2.055
   0.144   3.121  -2.055
   2.276  -1.408  -2.055
   2.532  -1.222  -2.055
   2.763  -1.005  -2.055
   2.965  -0.761  -2.055
   3.135  -0.493  -2.055
   3.270  -0.207  -2.055
   3.367   0.095  -2.055
   3.427   0.406  -2.055
   3.295   0.722  -2.330
   3.274   1.038  -2.330
   3.211   1.348  -2.330
   3.107   1.648  -2.330
   2.964   1.930  -2.330
   2.785   2.191  -2.330
   2.572   2.426  -2.330
   2.330   2.631  -2.330
   2.063   2.801  -2.330
   1.776   2.934  -2.330
   1.474   3.028  -2.330
   1.161   3.081  -2.330
   0.845   3.092  -2.330
   0.530   3.060  -2.330
   0.222   2.986  -2.330
   2.063  -1.357  -2.330
   2.330  -1.187  -2.330
   2.572  -0.982  -2.330
   2.785  -0.747  -2.330
   2.964  -0.486  -2.330
   3.107  -0.204  -2.330
   3.211   0.096  -2.330
   3.274   0.406  -2.330
   3.113   0.722  -2.586
   3.090   1.041  -2.586
   3.020   1.353  -2.586
   2.906   1.651  -2.586
   2.750   1.930  -2.586
   2.554   2.183  -2.586
   2.324   2.405  -2.586
   2.064   2.591  -2.586
   1.780   2.737  -2.586
   1.478   2.840  -2.586
   1.163   2.898  -2.586
   0.844   2.910  -2.586
   0.526   2.875  -2.586
   0.217   2.794  -2.586
   1.780  -1.293  -2.586
   2.064  -1.147  -2.586
   2.324  -0.961  -2.586
   2.554  -0.739  -2.586
   2.750  -0.486  -2.586
   2.906  -0.207  -2.586
   3.020   0.091  -2.586
   3.090   0.403  -2.586
   2.904   0.722  -2.820
   2.878   1.040  -2.820
   2.802   1.349  -2.820
   2.677   1.642  -2.820
   2.507   1.911  -2.820
   2.296   2.150  -2.820
   2.049   2.351  -2.820
   1.773   2.511  -2.820
   1.475   2.624  -2.820
   1.163   2.687  -2.820
   0.844   2.700  -2.820
   0.528   2.662  -2.820
   1.475  -1.180  -2.820
   1.773  -1.067  -2.820
   2.049  -0.907  -2.820
   2.296  -0.706  -2.820
   2.507  -0.467  -2.820
   2.677  -0.198  -2.820
   2.802   0.095  -2.820
   2.878   0.404  -2.820
   2.670   0.722  -3.029
   2.640   1.043  -3.029
   2.552   1.353  -3.029
   2.408   1.641  -3.029
   2.214   1.898  -3.029
   1.976   2.115  -3.029
   1.702   2.285  -3.029
   1.402   2.401  -3.029
   1.085   2.460  -3.029
   0.763   2.460  -3.029
   0.446   2.401  -3.029
   1.085  -1.016  -3.029
   1.402  -0.957  -3.029
   1.702  -0.841  -3.029
   1.976  -0.671  -3.029
   2.214  -0.454  -3.029
   2.408  -0.197  -3.029
   2.552   0.091  -3.029
   2.640   0.401  -3.029
   2.414   0.722  -3.211
   2.379   1.042  -3.211
   2.276   1.348  -3.211
   2.110   1.624  -3.211
   1.888   1.857  -3.211
   1.622   2.038  -3.211
   1.323   2.157  -3.211
   1.005   2.210  -3.211
   0.683   2.192  -3.211
   0.683  -0.748  -3.211
   1.005  -0.766  -3.211
   1.323  -0.713  -3.211
   1.622  -0.594  -3.211
   1.888  -0.413  -3.211
   2.110  -0.180  -3.211
   2.276   0.096  -3.211
   2.379   0.402  -3.211
   2.139   0.722  -3.363
   2.097   1.036  -3.363
   1.976   1.329  -3.363
   1.783   1.581  -3.363
   1.531   1.774  -3.363
   1.238   1.895  -3.363
   0.924   1.937  -3.363
   0.610   1.895  -3.363
   0.610  -0.451  -3.363
   0.924  -0.493  -3.363
   1.238  -0.451  -3.363
   1.531  -0.330  -3.363
   1.783  -0.137  -3.363
   1.976   0.115  -3.363
   2.097   0.408  -3.363
   1.849   0.722  -3.483
   1.793   1.038  -3.483
   1.632   1.316  -3.483
   1.386   1.523  -3.483
   1.085   1.633  -3.483
   0.763   1.633  -3.483
   0.462  -0.079  -3.483
   0.763  -0.189  -3.483
   1.085  -0.189  -3.483
   1.386  -0.079  -3.483
   1.632   0.128  -3.483
   1.793   0.406  -3.483
   1.547   0.722  -3.570
   1.464   1.034  -3.570
   1.236   1.262  -3.570
   0.924   1.345  -3.570
   0.612   0.182  -3.570
   0.924   0.099  -3.570
   1.236   0.182  -3.570
   1.464   0.410  -3.570
   1.238   0.722  -3.622
   1.081   0.994  -3.622
   0.767   0.994  -3.622
   0.610   0.722  -3.622
   0.767   0.450  -3.622
   1.081   0.450  -3.622
   0.924   0.722  -3.640
   0.004  -2.054   2.942
   0.323  -2.140   2.942
   0.642  -2.054   2.942
   0.876  -1.820   2.942
  -0.403  -2.110   2.853
  -0.151  -2.322   2.853
   0.158  -2.434   2.853
   0.488  -2.434   2.853
   0.797  -2.322   2.853
   1.049  -2.110   2.853
   1.214  -1.825   2.853
   1.568  -1.501   2.730
  -0.755  -2.124   2.730
  -0.558  -2.382   2.730
  -0.300  -2.579   2.730
   0.001  -2.704   2.730
   0.323  -2.746   2.730
   0.645  -2.704   2.730
   0.946  -2.579   2.730
   1.204  -2.382   2.730
   1.401  -2.124   2.730
   1.526  -1.823   2.730
   1.850  -1.501   2.574
  -1.124  -1.989   2.574
  -0.985  -2.288   2.574
  -0.786  -2.551   2.574
  -0.534  -2.765   2.574
  -0.242  -2.919   2.574
   0.076  -3.008   2.574
   0.406  -3.026   2.574
   0.731  -2.972   2.574
   1.038  -2.850   2.574
   1.312  -2.665   2.574
   1.539  -2.425   2.574
   1.709  -2.142   2.574
   1.814  -1.829   2.574
   2.112  -1.501   2.388
   2.082  -1.172   2.388
  -1.346  -2.147   2.388
  -1.198  -2.443   2.388
  -0.999  -2.707   2.388
  -0.755  -2.929   2.388
  -0.475  -3.103   2.388
  -0.167  -3.222   2.388
   0.158  -3.283   2.388
   0.488  -3.283   2.388
   0.813  -3.222   2.388
   1.121  -3.103   2.388
   1.401  -2.929   2.388
   1.645  -2.707   2.388
   1.844  -2.443   2.388
   1.992  -2.147   2.388
   2.082  -1.830   2.388
   2.352  -1.501   2.173
   2.326  -1.175   2.173
  -1.647  -1.987   2.173
  -1.544  -2.296   2.173
  -1.392  -2.586   2.173
  -1.196  -2.847   2.173
  -0.960  -3.073   2.173
  -0.692  -3.259   2.173
  -0.397  -3.399   2.173
  -0.083  -3.489   2.173
   0.241  -3.529   2.173
   0.568  -3.516   2.173
   0.888  -3.450   2.173
   1.193  -3.334   2.173
   1.476  -3.171   2.173
   1.729  -2.965   2.173
   1.945  -2.720   2.173
   2.120  -2.444   2.173
   2.248  -2.144   2.173
   2.326  -1.827   2.173
   2.567  -1.501   1.933
   2.543  -1.174   1.933
   2.472  -0.855   1.933
  -1.867  -1.989   1.933
  -1.773  -2.303   1.933
  -1.634  -2.599   1.933
  -1.453  -2.872   1.933
  -1.234  -3.116   1.933
  -0.983  -3.326   1.933
  -0.703  -3.497   1.933
  -0.402  -3.625   1.933
  -0.085  -3.708   1.933
   0.241  -3.743   1.933
   0.568  -3.731   1.933
   0.891  -3.672   1.933
   1.201  -3.566   1.933
   1.492  -3.416   1.933
   1.758  -3.226   1.933
   1.994  -2.998   1.933
   2.194  -2.739   1.933
   2.355  -2.453   1.933
   2.472  -2.147   1.933
   2.543  -1.828   1.933
   2.753  -1.501   1.671
   2.731  -1.177   1.671
   2.667  -0.859   1.671
  -2.058  -1.985   1.671
  -1.973  -2.298   1.671
  -1.846  -2.597   1.671
  -1.680  -2.876   1.671
  -1.479  -3.131   1.671
  -1.246  -3.357   1.671
  -0.985  -3.549   1.671
  -0.700  -3.705   1.671
  -0.397  -3.822   1.671
  -0.081  -3.897   1.671
   0.242  -3.930   1.671
   0.566  -3.919   1.671
   0.886  -3.865   1.671
   1.196  -3.769   1.671
   1.491  -3.632   1.671
   1.764  -3.457   1.671
   2.012  -3.248   1.671
   2.230  -3.007   1.671
   2.414  -2.739   1.671
   2.560  -2.450   1.671
   2.667  -2.143   1.671
   2.731  -1.825   1.671
   2.909  -1.501   1.389
   2.888  -1.177   1.389
   2.828  -0.858   1.389
  -2.182  -2.144   1.389
  -2.081  -2.453   1.389
  -1.943  -2.747   1.389
  -1.769  -3.021   1.389
  -1.562  -3.271   1.389
  -1.325  -3.493   1.389
  -1.063  -3.684   1.389
  -0.778  -3.841   1.389
  -0.476  -3.960   1.389
  -0.162  -4.041   1.389
   0.161  -4.082   1.389
   0.485  -4.082   1.389
   0.808  -4.041   1.389
   1.122  -3.960   1.389
   1.424  -3.841   1.389
   1.709  -3.684   1.389
   1.971  -3.493   1.389
   2.208  -3.271   1.389
   2.415  -3.021   1.389
   2.589  -2.747   1.389
   2.727  -2.453   1.389
   2.828  -2.144   1.389
   2.888  -1.825   1.389
   3.032  -1.501   1.092
   3.012  -1.174   1.092
   2.953  -0.853   1.092
  -2.210  -2.462   1.092
  -2.076  -2.760   1.092
  -1.906  -3.040   1.092
  -1.705  -3.297   1.092
  -1.473  -3.529   1.092
  -1.216  -3.730   1.092
  -0.936  -3.900   1.092
  -0.638  -4.034   1.092
  -0.325  -4.131   1.092
  -0.004  -4.190   1.092
   0.323  -4.210   1.092
   0.650  -4.190   1.092
   0.971  -4.131   1.092
   1.284  -4.034   1.092
   1.582  -3.900   1.092
   1.862  -3.730   1.092
   2.119  -3.529   1.092
   2.351  -3.297   1.092
   2.552  -3.040   1.092
   2.722  -2.760   1.092
   2.856  -2.462   1.092
   2.953  -2.149   1.092
   3.012  -1.828   1.092
   3.121  -1.501   0.783
   3.102  -1.176   0.783
   3.046  -0.856   0.783
  -2.306  -2.458   0.783
  -2.177  -2.757   0.783
  -2.015  -3.039   0.783
  -1.820  -3.300   0.783
  -1.597  -3.536   0.783
  -1.348  -3.745   0.783
  -1.076  -3.924   0.783
  -0.785  -4.070   0.783
  -0.479  -4.181   0.783
  -0.163  -4.257   0.783
   0.160  -4.294   0.783
   0.486  -4.294   0.783
   0.809  -4.257   0.783
   1.125  -4.181   0.783
   1.431  -4.070   0.783
   1.722  -3.924   0.783
   1.994  -3.745   0.783
   2.243  -3.536   0.783
   2.466  -3.300   0.783
   2.661  -3.039   0.783
   2.823  -2.757   0.783
   2.952  -2.458   0.783
   3.046  -2.146   0.783
   3.102  -1.826   0.783
   3.175  -1.501   0.465
   3.156  -1.176   0.465
  -2.160  -2.903   0.465
  -1.984  -3.177   0.465
  -1.778  -3.429   0.465
  -1.545  -3.656   0.465
  -1.287  -3.855   0.465
  -1.008  -4.023   0.465
  -0.712  -4.159   0.465
  -0.402  -4.259   0.465
  -0.083  -4.324   0.465
   0.242  -4.352   0.465
   0.567  -4.342   0.465
   0.889  -4.296   0.465
   1.204  -4.213   0.465
   1.508  -4.095   0.465
   1.796  -3.943   0.465
   2.065  -3.759   0.465
   2.311  -3.546   0.465
   2.531  -3.306   0.465
   2.722  -3.043   0.465
   2.882  -2.759   0.465
   3.009  -2.459   0.465
   3.101  -2.147   0.465
   3.156  -1.826   0.465
   3.193  -1.501   0.144
   3.175  -1.180   0.144
  -2.263  -2.746   0.144
  -2.107  -3.028   0.144
  -1.921  -3.290   0.144
  -1.706  -3.530   0.144
  -1.466  -3.745   0.144
  -1.204  -3.931   0.144
  -0.922  -4.087   0.144
  -0.625  -4.210   0.144
  -0.316  -4.299   0.144
   0.002  -4.353   0.144
   0.323  -4.371   0.144
   0.644  -4.353   0.144
   0.962  -4.299   0.144
   1.271  -4.210   0.144
   1.568  -4.087   0.144
   1.850  -3.931   0.144
   2.112  -3.745   0.144
   2.352  -3.530   0.144
   2.567  -3.290   0.144
   2.753  -3.028   0.144
   2.909  -2.746   0.144
   3.032  -2.449   0.144
   3.121  -2.140   0.144
   3.175  -1.822   0.144
   3.175  -1.501  -0.177
   3.156  -1.176  -0.177
  -2.160  -2.903  -0.177
  -1.984  -3.177  -0.177
  -1.778  -3.429  -0.177
  -1.545  -3.656  -0.177
  -1.287  -3.855  -0.177
  -1.008  -4.023  -0.177
  -0.712  -4.159  -0.177
  -0.402  -4.259  -0.177
  -0.083  -4.324  -0.177
   0.242  -4.352  -0.177
   0.567  -4.342  -0.177
   0.889  -4.296  -0.177
   1.204  -4.213  -0.177
   1.508  -4.095  -0.177
   1.796  -3.943  -0.177
   2.065  -3.759  -0.177
   2.311  -3.546  -0.177
   2.531  -3.306  -0.177
   2.722  -3.043  -0.177
   2.882  -2.759  -0.177
   3.009  -2.459  -0.177
   3.101  -2.147  -0.177
   3.156  -1.826  -0.177
   3.121  -1.501  -0.495
   3.102  -1.176  -0.495
  -2.015  -3.039  -0.495
  -1.820  -3.300  -0.495
  -1.597  -3.536  -0.495
  -1.348  -3.745  -0.495
  -1.076  -3.924  -0.495
  -0.785  -4.070  -0.495
  -0.479  -4.181  -0.495
  -0.163  -4.257  -0.495
   0.160  -4.294  -0.495
   0.486  -4.294  -0.495
   0.809  -4.257  -0.495
   1.125  -4.181  -0.495
   1.431  -4.070  -0.495
   1.722  -3.924  -0.495
   1.994  -3.745  -0.495
   2.243  -3.536  -0.495
   2.466  -3.300  -0.495
   2.661  -3.039  -0.495
   2.823  -2.757  -0.495
   2.952  -2.458  -0.495
   3.046  -2.146  -0.495
   3.102  -1.826  -0.495
   3.032  -1.501  -0.804
   3.012  -1.174  -0.804
  -1.906  -3.040  -0.804
  -1.705  -3.297  -0.804
  -1.473  -3.529  -0.804
  -1.216  -3.730  -0.804
  -0.936  -3.900  -0.804
  -0.638  -4.034  -0.804
  -0.325  -4.131  -0.804
  -0.004  -4.190  -0.804
   0.323  -4.210  -0.804
   0.650  -4.190  -0.804
   0.971  -4.131  -0.804
   1.284  -4.034  -0.804
   1.582  -3.900  -0.804
   1.862  -3.730  -0.804
   2.119  -3.529  -0.804
   2.351  -3.297  -0.804
   2.552  -3.040  -0.804
   2.722  -2.760  -0.804
   2.856  -2.462  -0.804
   2.953  -2.149  -0.804
   3.012  -1.828  -0.804
   2.909  -1.501  -1.101
  -1.769  -3.021  -1.101
  -1.562  -3.271  -1.101
  -1.325  -3.493  -1.101
  -1.063  -3.684  -1.101
  -0.778  -3.841  -1.101
  -0.476  -3.960  -1.101
  -0.162  -4.041  -1.101
   0.161  -4.082  -1.101
   0.485  -4.082  -1.101
   0.808  -4.041  -1.101
   1.122  -3.960  -1.101
   1.424  -3.841  -1.101
   1.709  -3.684  -1.101
   1.971  -3.493  -1.101
   2.208  -3.271  -1.101
   2.415  -3.021  -1.101
   2.589  -2.747  -1.101
   2.727  -2.453  -1.101
   2.828  -2.144  -1.101
   2.888  -1.825  -1.101
   2.753  -1.501  -1.383
  -1.680  -2.876  -1.383
  -1.479  -3.131  -1.383
  -1.246  -3.357  -1.383
  -0.985  -3.549  -1.383
  -0.700  -3.705  -1.383
  -0.397  -3.822  -1.383
  -0.081  -3.897  -1.383
   0.242  -3.930  -1.383
   0.566  -3.919  -1.383
   0.886  -3.865  -1.383
   1.196  -3.769  -1.383
   1.491  -3.632  -1.383
   1.764  -3.457  -1.383
   2.012  -3.248  -1.383
   2.230  -3.007  -1.383
   2.414  -2.739  -1.383
   2.560  -2.450  -1.383
   2.667  -2.143  -1.383
   2.731  -1.825  -1.383
   2.567  -1.501  -1.645
  -1.453  -2.872  -1.645
  -1.234  -3.116  -1.645
  -0.983  -3.326  -1.645
  -0.703  -3.497  -1.645
  -0.402  -3.625  -1.645
  -0.085  -3.708  -1.645
   0.241  -3.743  -1.645
   0.568  -3.731  -1.645
   0.891  -3.672  -1.645
   1.201  -3.566  -1.645
   1.492  -3.416  -1.645
   1.758  -3.226  -1.645
   1.994  -2.998  -1.645
   2.194  -2.739  -1.645
   2.355  -2.453  -1.645
   2.472  -2.147  -1.645
   2.543  -1.828  -1.645
   2.352  -1.501  -1.885
  -1.196  -2.847  -1.885
  -0.960  -3.073  -1.885
  -0.692  -3.259  -1.885
  -0.397  -3.399  -1.885
  -0.083  -3.489  -1.885
   0.241  -3.529  -1.885
   0.568  -3.516  -1.885
   0.888  -3.450  -1.885
   1.193  -3.334  -1.885
   1.476  -3.171  -1.885
   1.729  -2.965  -1.885
   1.945  -2.720  -1.885
   2.120  -2.444  -1.885
   2.248  -2.144  -1.885
   2.326  -1.827  -1.885
   2.112  -1.501  -2.100
  -0.999  -2.707  -2.100
  -0.755  -2.929  -2.100
  -0.475  -3.103  -2.100
  -0.167  -3.222  -2.100
   0.158  -3.283  -2.100
   0.488  -3.283  -2.100
   0.813  -3.222  -2.100
   1.121  -3.103  -2.100
   1.401  -2.929  -2.100
   1.645  -2.707  -2.100
   1.844  -2.443  -2.100
   1.992  -2.147  -2.100
   2.082  -1.830  -2.100
   1.850  -1.501  -2.286
  -0.786  -2.551  -2.286
  -0.534  -2.765  -2.286
  -0.242  -2.919  -2.286
   0.076  -3.008  -2.286
   0.406  -3.026  -2.286
   0.731  -2.972  -2.286
   1.038  -2.850  -2.286
   1.312  -2.665  -2.286
   1.539  -2.425  -2.286
   1.709  -2.142  -2.286
   1.814  -1.829  -2.286
  -0.558  -2.382  -2.442
  -0.300  -2.579  -2.442
   0.001  -2.704  -2.442
   0.323  -2.746  -2.442
   0.645  -2.704  -2.442
   0.946  -2.579  -2.442
   1.204  -2.382  -2.442
   1.401  -2.124  -2.442
   1.526  -1.823  -2.442
  -0.403  -2.110  -2.565
  -0.151  -2.322  -2.565
   0.158  -2.435  -2.565
   0.488  -2.435  -2.565
   0.797  -2.322  -2.565
   1.049  -2.110  -2.565
   1.214  -1.825  -2.565
   0.004  -2.054  -2.654
   0.323  -2.140  -2.654
   0.642  -2.054  -2.654
   0.876  -1.820  -2.654
  -2.958   0.000   1.771
  -2.958  -0.322   1.771
  -2.889  -0.637   1.771
  -2.753  -0.929   1.771
  -2.559  -1.185   1.771
  -3.105   0.470   1.589
  -3.193   0.160   1.589
  -3.223  -0.161   1.589
  -3.193  -0.482   1.589
  -3.105  -0.792   1.589
  -2.961  -1.080   1.589
  -2.767  -1.337   1.589
  -2.529  -1.554   1.589
  -3.450  -0.002   1.380
  -3.450  -0.320   1.380
  -3.399  -0.635   1.380
  -3.298  -0.937   1.380
  -3.150  -1.219   1.380
  -2.959  -1.474   1.380
  -2.729  -1.695   1.380
  -2.467  -1.876   1.380
  -3.660  -0.321   1.146
  -3.614  -0.637   1.146
  -3.522  -0.943   1.146
  -3.386  -1.232   1.146
  -3.210  -1.499   1.146
  -2.996  -1.737   1.146
  -2.751  -1.941   1.146
  -2.478  -2.108   1.146
  -3.800  -0.633   0.890
  -3.717  -0.939   0.890
  -3.593  -1.230   0.890
  -3.432  -1.503   0.890
  -3.235  -1.751   0.890
  -3.008  -1.971   0.890
  -2.753  -2.159   0.890
  -2.475  -2.312   0.890
  -3.920  -0.788   0.615
  -3.823  -1.090   0.615
  -3.688  -1.376   0.615
  -3.518  -1.644   0.615
  -3.316  -1.888   0.615
  -3.085  -2.105   0.615
  -2.829  -2.291   0.615
  -2.551  -2.444   0.615
  -3.817  -1.389   0.325
  -3.652  -1.662   0.325
  -3.455  -1.914   0.325
  -3.230  -2.139   0.325
  -2.978  -2.336   0.325
  -2.705  -2.501   0.325
  -2.414  -2.632   0.325
  -3.758  -1.661   0.023
  -3.568  -1.916   0.023
  -3.350  -2.147   0.023
  -3.107  -2.351   0.023
  -2.842  -2.525   0.023
  -2.558  -2.668   0.023
  -2.260  -2.776   0.023
  -3.728  -1.796  -0.286
  -3.527  -2.042  -0.286
  -3.299  -2.264  -0.286
  -3.048  -2.458  -0.286
  -2.775  -2.622  -0.286
  -2.486  -2.754  -0.286
  -2.184  -2.852  -0.286
  -3.457  -2.141  -0.600
  -3.223  -2.350  -0.600
  -2.967  -2.532  -0.600
  -2.692  -2.684  -0.600
  -2.402  -2.804  -0.600
  -2.100  -2.891  -0.600
  -3.527  -2.042  -0.913
  -3.299  -2.264  -0.913
  -3.048  -2.458  -0.913
  -2.775  -2.622  -0.913
  -2.486  -2.754  -0.913
  -2.184  -2.852  -0.913
  -3.350  -2.147  -1.223
  -3.107  -2.351  -1.223
  -2.842  -2.525  -1.223
  -2.558  -2.668  -1.223
  -2.260  -2.776  -1.223
  -1.951  -2.849  -1.223
  -3.230  -2.139  -1.525
  -2.978  -2.336  -1.525
  -2.705  -2.501  -1.525
  -2.414  -2.632  -1.525
  -2.109  -2.727  -1.525
  -1.796  -2.785  -1.525
  -2.829  -2.291  -1.815
  -2.551  -2.444  -1.815
  -2.257  -2.560  -1.815
  -1.950  -2.639  -1.815
  -1.635  -2.679  -1.815
  -2.753  -2.159  -2.090
  -2.475  -2.312  -2.090
  -2.179  -2.425  -2.090
  -1.871  -2.499  -2.090
  -1.556  -2.531  -2.090
  -1.240  -2.520  -2.090
  -2.478  -2.108  -2.346
  -2.184  -2.233  -2.346
  -1.875  -2.314  -2.346
  -1.557  -2.349  -2.346
  -1.238  -2.337  -2.346
  -0.923  -2.279  -2.346
  -2.179  -2.012  -2.580
  -1.873  -2.101  -2.580
  -1.557  -2.139  -2.580
  -1.238  -2.126  -2.580
  -0.926  -2.063  -2.580
  -1.638  -1.899  -2.789
  -1.316  -1.899  -2.789
  -0.999  -1.840  -2.789
  -0.699  -1.724  -2.789
  -1.078  -1.596  -2.971
  -0.779  -1.477  -2.971
  -3.176   0.856   1.549
  -3.497   0.856   1.416
  -3.451   0.508   1.416
  -3.792   1.034   1.248
  -3.792   0.678   1.248
  -3.715   0.329   1.248
  -4.052   1.211   1.047
  -4.085   0.856   1.047
  -4.052   0.501   1.047
  -3.954   0.158   1.047
  -3.795  -0.161   1.047
  -4.280   1.381   0.815
  -4.337   1.032   0.815
  -4.337   0.680   0.815
  -4.280   0.331   0.815
  -4.169  -0.003   0.815
  -4.005  -0.316   0.815
  -4.416   1.722   0.556
  -4.518   1.383   0.556
  -4.632   1.717   0.272
  -4.749   1.884  -0.032
  -4.743   2.216  -0.353
  -4.677   2.517  -0.687
  -4.644   2.667  -1.030
  -4.834   2.371  -1.030
  -4.576   2.789  -1.377
  -4.777   2.505  -1.377
  -4.422   2.939  -1.724
  -4.644   2.667  -1.724
  -0.078   3.054  -2.067
  -0.347   3.280  -2.067
  -3.957   3.280  -2.067
  -4.226   3.054  -2.067
  -4.467   2.799  -2.067
  -4.677   2.517  -2.067
  -0.792   3.447  -2.401
  -1.114   3.592  -2.401
  -3.512   3.447  -2.401
  -3.814   3.264  -2.401
  -4.092   3.046  -2.401
  -4.342   2.796  -2.401
  -4.560   2.518  -2.401
  -2.852  -1.985  -2.401
  -2.505  -2.049  -2.401
  -1.289   3.512  -2.722
  -1.629   3.600  -2.722
  -1.977   3.643  -2.722
  -2.327   3.643  -2.722
  -2.675   3.600  -2.722
  -3.015   3.512  -2.722
  -3.341   3.383  -2.722
  -3.649   3.214  -2.722
  -3.932   3.008  -2.722
  -4.188   2.768  -2.722
  -4.412   2.498  -2.722
  -2.675  -1.888  -2.722
  -2.327  -1.931  -2.722
  -1.977  -1.931  -2.722
  -1.889   3.468  -3.026
  -2.240   3.479  -3.026
  -2.589   3.444  -3.026
  -2.930   3.363  -3.026
  -3.257   3.237  -3.026
  -3.564   3.068  -3.026
  -3.847   2.860  -3.026
  -4.099   2.617  -3.026
  -4.316   2.342  -3.026
  -2.589  -1.732  -3.026
  -2.240  -1.767  -3.026
  -1.889  -1.756  -3.026
  -1.544  -1.697  -3.026
  -1.209  -1.593  -3.026
  -0.891  -1.446  -3.026
  -2.592   3.239  -3.310
  -2.935   3.150  -3.310
  -3.260   3.011  -3.310
  -3.562   2.827  -3.310
  -3.834   2.601  -3.310
  -4.070   2.337  -3.310
  -4.266   2.042  -3.310
  -2.935  -1.438  -3.310
  -2.592  -1.527  -3.310
  -2.241  -1.566  -3.310
  -1.887  -1.553  -3.310
  -1.539  -1.489  -3.310
  -2.929   2.906  -3.569
  -3.248   2.754  -3.569
  -3.538   2.554  -3.569
  -3.793   2.310  -3.569
  -4.005   2.028  -3.569
  -2.929  -1.194  -3.569
  -2.590  -1.292  -3.569
  -2.240  -1.334  -3.569
  -1.888  -1.320  -3.569
  -3.317   2.398  -3.801
  -3.580   2.158  -3.801
  -3.795   1.874  -3.801
  -3.954   1.554  -3.801
  -3.014  -0.874  -3.801
  -2.681  -1.003  -3.801
  -2.330  -1.069  -3.801
  -3.349   1.990  -4.002
  -3.565   1.706  -4.002
  -3.715   1.383  -4.002
  -3.792   1.034  -4.002
  -3.078  -0.509  -4.002
  -2.762  -0.676  -4.002
  -3.451   1.204  -4.170
  -3.497   0.856  -4.170
  -3.451   0.508  -4.170
  -3.317   0.183  -4.170
  -4.648   2.385  -0.256
  -4.661   2.528  -0.544
  -4.525   2.928  -0.835
  -4.636   2.659  -0.835
  -4.432   3.070  -1.126
  -4.562   2.806  -1.126
  -4.300   3.193  -1.414
  -4.019   3.427  -1.694
  -4.202   3.194  -1.694
  -3.675   3.605  -1.963
  -3.890   3.404  -1.963
  -3.109   3.797  -2.218