 $system timlim=999888777
         mwords=100 $end
 $contrl exetyp=run
         runtyp=energy scftyp=rhf
         icharg=-1 mult=1 units=angs coord=unique
         maxit=50 ispher=1 qmttol=1d-6 icut=12 itol=22 $end
 $scf    dirscf=.t. diis=.t. soscf=.f.
         fdiff=.f. conv=1d-6
         npreo(1)=0,-1,1,9999 $end
 $elpot  iepot=1 where=points $end
 $basis  gbasis=n311 ngauss=6
         ndfunc=1 npfunc=1 diffsp=.t. diffs=.t. $end
 $DATA
TS1a_hfd_irc200_all_revmov.pdb
C1
P     15.0    -0.04200   0.00800  -0.02300 
O      8.0    -0.13000   0.35300   1.49100 
O      8.0     0.91900   0.74400  -0.82300 
F      9.0     0.33400  -1.50400   0.10600 
O      8.0    -1.47700  -0.16000  -0.60000 
C      6.0    -2.15200   0.85600  -1.37700 
H      1.0    -2.16600   1.80100  -0.83700 
H      1.0    -1.64300   0.95000  -2.32700 
H      1.0    -3.14800   0.46700  -1.53000 
C      6.0     0.03600   1.68900   2.01900 
H      1.0    -0.18400   1.59700   3.07300 
H      1.0     1.06900   1.98300   1.88100 
H      1.0    -0.64400   2.38100   1.52500 
O      8.0    -1.92600   3.31600   0.37800 
H      1.0    -1.75100   4.19000   0.05100 
 $END
 $POINTS
ANGS 3138
  -1.833  -1.849   2.035
   2.429  -0.735   2.035
  -2.346  -1.573   1.733
  -2.114  -1.866   1.733
   2.653  -0.730   1.733
   2.727  -0.364   1.733
   2.931   0.008   1.409
  -2.209  -2.027   1.409
   2.838  -0.731   1.409
   2.908  -0.365   1.409
   3.073   0.008   1.067
   3.050   0.383   1.067
   2.982  -0.737   1.067
   3.050  -0.367   1.067
   3.175   0.008   0.711
   3.089  -0.734   0.711
   3.154  -0.366   0.711
   3.152  -0.735   0.346
   3.216  -0.366   0.346
   3.175  -0.726  -0.023
  -0.605  -1.971  -2.603
   1.479  -1.378  -2.603
  -0.326  -1.725  -2.817
   0.053  -1.745  -2.817
   0.428  -1.684  -2.817
   0.780  -1.543  -2.817
   1.095  -1.330  -2.817
  -0.413  -1.375  -2.996
  -0.042  -1.424  -2.996
   0.329  -1.375  -2.996
   0.674  -1.232  -2.996
   0.147  -1.065  -3.138
   0.503  -0.936  -3.138
   0.325  -0.628  -3.240
  -0.444  -0.820   4.014
  -0.130  -0.862   4.014
   0.184  -0.820   4.014
  -1.212  -0.671   3.862
  -0.966  -0.880   3.862
  -0.681  -1.031   3.862
  -0.371  -1.117   3.862
  -0.049  -1.135   3.862
   0.269  -1.082   3.862
   0.568  -0.963   3.862
   0.834  -0.782   3.862
  -1.614  -0.566   3.680
  -1.420  -0.823   3.680
  -1.182  -1.040   3.680
  -0.908  -1.210   3.680
  -0.608  -1.326   3.680
  -0.291  -1.385   3.680
   0.031  -1.385   3.680
   0.348  -1.326   3.680
   0.648  -1.210   3.680
   0.922  -1.040   3.680
   1.160  -0.823   3.680
  -1.951  -0.423   3.471
  -1.803  -0.705   3.471
  -1.612  -0.960   3.471
  -1.382  -1.181   3.471
  -1.120  -1.362   3.471
  -0.832  -1.498   3.471
  -0.526  -1.587   3.471
  -0.210  -1.625   3.471
   0.109  -1.612   3.471
   0.421  -1.549   3.471
   0.719  -1.436   3.471
   0.995  -1.276   3.471
   1.242  -1.075   3.471
   1.453  -0.836   3.471
   1.623  -0.567   3.471
  -2.267  -0.123   3.237
  -2.175  -0.429   3.237
  -2.039  -0.718   3.237
  -1.863  -0.985   3.237
  -1.649  -1.223   3.237
  -1.404  -1.427   3.237
  -1.131  -1.594   3.237
  -0.837  -1.719   3.237
  -0.528  -1.800   3.237
  -0.210  -1.835   3.237
   0.109  -1.823   3.237
   0.424  -1.765   3.237
   0.726  -1.662   3.237
   1.010  -1.516   3.237
   1.270  -1.330   3.237
   1.500  -1.108   3.237
   1.696  -0.855   3.237
   1.852  -0.576   3.237
  -2.453  -0.119   2.981
  -2.370  -0.425   2.981
  -2.246  -0.716   2.981
  -2.085  -0.989   2.981
  -1.888  -1.237   2.981
  -1.661  -1.457   2.981
  -1.406  -1.645   2.981
  -1.128  -1.798   2.981
  -0.832  -1.911   2.981
  -0.524  -1.985   2.981
  -0.209  -2.017   2.981
   0.107  -2.006   2.981
   0.420  -1.953   2.981
   0.722  -1.859   2.981
   1.009  -1.726   2.981
   1.276  -1.556   2.981
   1.518  -1.351   2.981
   1.731  -1.116   2.981
   1.910  -0.855   2.981
   2.053  -0.573   2.981
  -2.633   0.037   2.706
  -2.573  -0.274   2.706
  -2.476  -0.576   2.706
  -2.341  -0.862   2.706
  -2.171  -1.130   2.706
  -1.969  -1.374   2.706
  -1.738  -1.591   2.706
  -1.482  -1.777   2.706
  -1.204  -1.930   2.706
  -0.910  -2.046   2.706
   1.709  -1.374   2.706
   1.911  -1.130   2.706
   2.081  -0.862   2.706
   2.216  -0.576   2.706
  -2.773   0.353   2.416
  -2.754   0.034   2.416
  -2.696  -0.279   2.416
  -2.601  -0.584   2.416
  -2.470  -0.875   2.416
  -2.305  -1.148   2.416
  -2.108  -1.400   2.416
  -1.883  -1.625   2.416
  -1.631  -1.822   2.416
  -1.358  -1.987   2.416
   2.045  -1.148   2.416
   2.210  -0.875   2.416
   2.341  -0.584   2.416
   2.436  -0.279   2.416
  -2.860   0.353   2.114
  -2.841   0.036   2.114
  -2.786  -0.277   2.114
  -2.695  -0.581   2.114
  -2.569  -0.872   2.114
  -2.411  -1.147   2.114
  -2.221  -1.402   2.114
  -2.003  -1.633   2.114
  -1.760  -1.837   2.114
   2.435  -0.581   2.114
   2.526  -0.277   2.114
  -2.908   0.512   1.805
  -2.908   0.194   1.805
   3.290   0.744   0.667
   3.269   1.060   0.667
   3.206   0.118   0.667
   3.269   0.428   0.667
   3.442   0.744   0.392
   3.422   1.060   0.392
   3.362   1.371   0.392
   3.265   1.673   0.392
   3.265  -0.185   0.392
   3.362   0.117   0.392
   3.422   0.428   0.392
   3.562   0.744   0.102
   3.543   1.063   0.102
   3.485   1.376   0.102
   3.390   1.681   0.102
   3.259   1.972   0.102
   3.094   2.245   0.102
   2.897   2.497   0.102
   3.259  -0.484   0.102
   3.390  -0.193   0.102
   3.485   0.112   0.102
   3.543   0.425   0.102
   3.649   0.744  -0.200
   3.630   1.061  -0.200
   3.575   1.374  -0.200
   3.484   1.678  -0.200
   3.358   1.969  -0.200
   3.200   2.244  -0.200
   3.010   2.499  -0.200
   2.792   2.730  -0.200
   2.549   2.934  -0.200
   2.284   3.108  -0.200
   2.000   3.251  -0.200
   3.200  -0.756  -0.200
   3.358  -0.481  -0.200
   3.484  -0.190  -0.200
   3.575   0.114  -0.200
   3.630   0.427  -0.200
   3.701   0.744  -0.509
   3.683   1.061  -0.509
   3.629   1.374  -0.509
   3.540   1.679  -0.509
   3.416   1.972  -0.509
   3.260   2.248  -0.509
   3.073   2.505  -0.509
   2.858   2.739  -0.509
   2.618   2.947  -0.509
   2.356   3.127  -0.509
   2.075   3.275  -0.509
   1.779   3.390  -0.509
   1.472   3.471  -0.509
   1.157   3.516  -0.509
   0.840   3.525  -0.509
   3.260  -0.760  -0.509
   3.416  -0.484  -0.509
   3.540  -0.191  -0.509
   3.629   0.114  -0.509
   3.683   0.427  -0.509
   3.719   0.744  -0.823
   3.701   1.058  -0.823
   3.649   1.367  -0.823
   3.562   1.669  -0.823
   3.442   1.959  -0.823
   3.290   2.234  -0.823
   3.108   2.490  -0.823
   2.899   2.724  -0.823
   2.665   2.933  -0.823
   2.409   3.115  -0.823
   2.134   3.267  -0.823
   1.844   3.387  -0.823
   1.542   3.474  -0.823
   1.233   3.526  -0.823
   0.919   3.544  -0.823
   3.108  -1.002  -0.823
   3.290  -0.746  -0.823
   3.442  -0.471  -0.823
   3.562  -0.181  -0.823
   3.649   0.121  -0.823
   3.701   0.430  -0.823
   3.701   0.744  -1.136
   3.683   1.061  -1.136
   3.629   1.374  -1.136
   3.540   1.679  -1.136
   3.416   1.972  -1.136
   3.260   2.248  -1.136
   3.073   2.505  -1.136
   2.858   2.739  -1.136
   2.618   2.947  -1.136
   2.356   3.127  -1.136
   2.075   3.275  -1.136
   1.779   3.390  -1.136
   1.472   3.471  -1.136
   1.157   3.516  -1.136
   0.840   3.525  -1.136
   0.523   3.498  -1.136
   3.073  -1.017  -1.136
   3.260  -0.760  -1.136
   3.416  -0.484  -1.136
   3.540  -0.191  -1.136
   3.629   0.114  -1.136
   3.683   0.427  -1.136
   3.649   0.744  -1.446
   3.630   1.061  -1.446
   3.575   1.374  -1.446
   3.484   1.678  -1.446
   3.358   1.969  -1.446
   3.200   2.244  -1.446
   3.010   2.499  -1.446
   2.792   2.730  -1.446
   2.549   2.934  -1.446
   2.284   3.108  -1.446
   2.000   3.251  -1.446
   1.702   3.359  -1.446
   1.393   3.432  -1.446
   1.078   3.469  -1.446
   0.760   3.469  -1.446
   0.445   3.432  -1.446
   2.792  -1.242  -1.446
   3.010  -1.011  -1.446
   3.200  -0.756  -1.446
   3.358  -0.481  -1.446
   3.484  -0.190  -1.446
   3.575   0.114  -1.446
   3.630   0.427  -1.446
   3.562   0.744  -1.748
   3.543   1.063  -1.748
   3.485   1.376  -1.748
   3.390   1.681  -1.748
   3.259   1.972  -1.748
   3.094   2.245  -1.748
   2.897   2.497  -1.748
   2.672   2.722  -1.748
   2.420   2.919  -1.748
   2.147   3.084  -1.748
   1.856   3.215  -1.748
   1.551   3.310  -1.748
   1.238   3.368  -1.748
   0.919   3.387  -1.748
   0.600   3.368  -1.748
   0.287   3.310  -1.748
  -0.018   3.215  -1.748
   2.672  -1.234  -1.748
   2.897  -1.009  -1.748
   3.094  -0.757  -1.748
   3.259  -0.484  -1.748
   3.390  -0.193  -1.748
   3.485   0.112  -1.748
   3.543   0.425  -1.748
   3.442   0.744  -2.038
   3.422   1.060  -2.038
   3.362   1.371  -2.038
   3.265   1.673  -2.038
   3.130   1.959  -2.038
   2.960   2.227  -2.038
   2.758   2.471  -2.038
   2.527   2.688  -2.038
   2.271   2.874  -2.038
   1.993   3.027  -2.038
   1.699   3.143  -2.038
   1.392   3.222  -2.038
   1.077   3.262  -2.038
   0.761   3.262  -2.038
   0.446   3.222  -2.038
   0.139   3.143  -2.038
   2.271  -1.386  -2.038
   2.527  -1.200  -2.038
   2.758  -0.983  -2.038
   2.960  -0.739  -2.038
   3.130  -0.471  -2.038
   3.265  -0.185  -2.038
   3.362   0.117  -2.038
   3.422   0.428  -2.038
   3.290   0.744  -2.313
   3.269   1.060  -2.313
   3.206   1.370  -2.313
   3.102   1.670  -2.313
   2.959   1.952  -2.313
   2.780   2.213  -2.313
   2.567   2.448  -2.313
   2.325   2.653  -2.313
   2.058   2.823  -2.313
   1.771   2.956  -2.313
   1.469   3.050  -2.313
   1.156   3.103  -2.313
   0.840   3.114  -2.313
   0.525   3.082  -2.313
   0.217   3.008  -2.313
   2.058  -1.335  -2.313
   2.325  -1.165  -2.313
   2.567  -0.960  -2.313
   2.780  -0.725  -2.313
   2.959  -0.464  -2.313
   3.102  -0.182  -2.313
   3.206   0.118  -2.313
   3.269   0.428  -2.313
   3.108   0.744  -2.569
   3.085   1.063  -2.569
   3.015   1.375  -2.569
   2.901   1.673  -2.569
   2.745   1.952  -2.569
   2.549   2.205  -2.569
   2.319   2.427  -2.569
   2.059   2.613  -2.569
   1.775   2.759  -2.569
   1.473   2.862  -2.569
   1.158   2.920  -2.569
   0.839   2.932  -2.569
   0.521   2.897  -2.569
   0.212   2.816  -2.569
   1.775  -1.271  -2.569
   2.059  -1.125  -2.569
   2.319  -0.939  -2.569
   2.549  -0.717  -2.569
   2.745  -0.464  -2.569
   2.901  -0.185  -2.569
   3.015   0.113  -2.569
   3.085   0.425  -2.569
   2.899   0.744  -2.803
   2.873   1.062  -2.803
   2.797   1.371  -2.803
   2.672   1.664  -2.803
   2.502   1.933  -2.803
   2.291   2.172  -2.803
   2.044   2.373  -2.803
   1.768   2.533  -2.803
   1.470   2.646  -2.803
   1.158   2.709  -2.803
   0.839   2.722  -2.803
   0.523   2.684  -2.803
   1.470  -1.158  -2.803
   1.768  -1.045  -2.803
   2.044  -0.885  -2.803
   2.291  -0.684  -2.803
   2.502  -0.445  -2.803
   2.672  -0.176  -2.803
   2.797   0.117  -2.803
   2.873   0.426  -2.803
   2.665   0.744  -3.012
   2.635   1.065  -3.012
   2.547   1.375  -3.012
   2.403   1.663  -3.012
   2.209   1.920  -3.012
   1.971   2.137  -3.012
   1.697   2.307  -3.012
   1.397   2.423  -3.012
   1.080   2.482  -3.012
   0.758   2.482  -3.012
   0.441   2.423  -3.012
   1.080  -0.994  -3.012
   1.397  -0.935  -3.012
   1.697  -0.819  -3.012
   1.971  -0.649  -3.012
   2.209  -0.432  -3.012
   2.403  -0.175  -3.012
   2.547   0.113  -3.012
   2.635   0.423  -3.012
   2.409   0.744  -3.194
   2.374   1.064  -3.194
   2.271   1.370  -3.194
   2.105   1.646  -3.194
   1.883   1.879  -3.194
   1.617   2.060  -3.194
   1.318   2.179  -3.194
   1.000   2.232  -3.194
   0.678   2.214  -3.194
   0.678  -0.726  -3.194
   1.000  -0.744  -3.194
   1.318  -0.691  -3.194
   1.617  -0.572  -3.194
   1.883  -0.391  -3.194
   2.105  -0.158  -3.194
   2.271   0.118  -3.194
   2.374   0.424  -3.194
   2.134   0.744  -3.346
   2.092   1.058  -3.346
   1.971   1.351  -3.346
   1.778   1.603  -3.346
   1.526   1.796  -3.346
   1.233   1.917  -3.346
   0.919   1.959  -3.346
   0.605   1.917  -3.346
   0.605  -0.429  -3.346
   0.919  -0.471  -3.346
   1.233  -0.429  -3.346
   1.526  -0.308  -3.346
   1.778  -0.115  -3.346
   1.971   0.137  -3.346
   2.092   0.430  -3.346
   1.844   0.744  -3.466
   1.788   1.060  -3.466
   1.627   1.338  -3.466
   1.381   1.545  -3.466
   1.080   1.655  -3.466
   0.758   1.655  -3.466
   0.758  -0.167  -3.466
   1.080  -0.167  -3.466
   1.381  -0.057  -3.466
   1.627   0.150  -3.466
   1.788   0.428  -3.466
   1.542   0.744  -3.553
   1.459   1.056  -3.553
   1.231   1.284  -3.553
   0.919   1.367  -3.553
   0.607   0.204  -3.553
   0.919   0.121  -3.553
   1.231   0.204  -3.553
   1.459   0.432  -3.553
   1.233   0.744  -3.605
   1.076   1.016  -3.605
   0.762   1.016  -3.605
   0.762   0.472  -3.605
   1.076   0.472  -3.605
   0.919   0.744  -3.623
   0.334  -2.143   2.904
   0.653  -2.057   2.904
  -0.392  -2.113   2.815
  -0.140  -2.325   2.815
   0.169  -2.437   2.815
   0.499  -2.438   2.815
   0.808  -2.325   2.815
   1.060  -2.113   2.815
   1.225  -1.828   2.815
  -0.744  -2.127   2.692
  -0.547  -2.385   2.692
  -0.289  -2.582   2.692
   0.012  -2.707   2.692
   0.334  -2.749   2.692
   0.656  -2.707   2.692
   0.957  -2.582   2.692
   1.215  -2.385   2.692
   1.412  -2.127   2.692
   1.537  -1.826   2.692
   1.861  -1.504   2.536
  -0.974  -2.291   2.536
  -0.775  -2.554   2.536
  -0.523  -2.768   2.536
  -0.231  -2.922   2.536
   0.087  -3.011   2.536
   0.417  -3.029   2.536
   0.742  -2.975   2.536
   1.049  -2.853   2.536
   1.323  -2.668   2.536
   1.550  -2.428   2.536
   1.720  -2.145   2.536
   1.825  -1.832   2.536
   2.123  -1.504   2.350
   2.093  -1.175   2.350
  -1.335  -2.150   2.350
  -1.187  -2.446   2.350
  -0.988  -2.710   2.350
  -0.744  -2.932   2.350
  -0.464  -3.106   2.350
  -0.156  -3.225   2.350
   0.169  -3.286   2.350
   0.499  -3.286   2.350
   0.824  -3.225   2.350
   1.132  -3.106   2.350
   1.412  -2.932   2.350
   1.656  -2.710   2.350
   1.855  -2.446   2.350
   2.003  -2.150   2.350
   2.093  -1.833   2.350
   2.363  -1.504   2.135
   2.337  -1.178   2.135
  -1.636  -1.990   2.135
  -1.533  -2.299   2.135
  -1.381  -2.589   2.135
  -1.185  -2.850   2.135
  -0.949  -3.076   2.135
  -0.681  -3.262   2.135
  -0.386  -3.402   2.135
  -0.072  -3.492   2.135
   0.252  -3.532   2.135
   0.579  -3.519   2.135
   0.899  -3.453   2.135
   1.204  -3.337   2.135
   1.487  -3.174   2.135
   1.740  -2.968   2.135
   1.956  -2.723   2.135
   2.131  -2.447   2.135
   2.259  -2.147   2.135
   2.337  -1.830   2.135
   2.578  -1.504   1.895
   2.554  -1.177   1.895
  -1.856  -1.992   1.895
  -1.762  -2.306   1.895
  -1.623  -2.602   1.895
  -1.442  -2.875   1.895
  -1.223  -3.119   1.895
  -0.972  -3.329   1.895
  -0.692  -3.500   1.895
  -0.391  -3.628   1.895
  -0.074  -3.711   1.895
   0.252  -3.746   1.895
   0.579  -3.734   1.895
   0.902  -3.675   1.895
   1.212  -3.569   1.895
   1.503  -3.419   1.895
   1.769  -3.229   1.895
   2.005  -3.001   1.895
   2.205  -2.742   1.895
   2.366  -2.456   1.895
   2.483  -2.150   1.895
   2.554  -1.831   1.895
   2.764  -1.504   1.633
   2.742  -1.180   1.633
   2.678  -0.862   1.633
  -1.962  -2.301   1.633
  -1.835  -2.600   1.633
  -1.669  -2.879   1.633
  -1.468  -3.134   1.633
  -1.235  -3.360   1.633
  -0.974  -3.552   1.633
  -0.689  -3.708   1.633
  -0.386  -3.825   1.633
  -0.070  -3.900   1.633
   0.253  -3.933   1.633
   0.577  -3.922   1.633
   0.897  -3.868   1.633
   1.207  -3.772   1.633
   1.502  -3.635   1.633
   1.775  -3.460   1.633
   2.023  -3.251   1.633
   2.241  -3.010   1.633
   2.425  -2.742   1.633
   2.571  -2.453   1.633
   2.678  -2.146   1.633
   2.742  -1.828   1.633
   2.920  -1.504   1.351
   2.899  -1.180   1.351
   2.839  -0.861   1.351
  -2.171  -2.147   1.351
  -2.070  -2.456   1.351
  -1.932  -2.750   1.351
  -1.758  -3.024   1.351
  -1.551  -3.274   1.351
  -1.314  -3.496   1.351
  -1.052  -3.687   1.351
  -0.767  -3.844   1.351
  -0.465  -3.963   1.351
  -0.151  -4.044   1.351
   0.172  -4.085   1.351
   0.496  -4.085   1.351
   0.819  -4.044   1.351
   1.133  -3.963   1.351
   1.435  -3.844   1.351
   1.720  -3.687   1.351
   1.982  -3.496   1.351
   2.219  -3.274   1.351
   2.426  -3.024   1.351
   2.600  -2.750   1.351
   2.738  -2.456   1.351
   2.839  -2.147   1.351
   2.899  -1.828   1.351
   3.043  -1.504   1.054
   3.023  -1.177   1.054
   2.964  -0.856   1.054
  -2.199  -2.465   1.054
  -2.065  -2.763   1.054
  -1.895  -3.043   1.054
  -1.694  -3.300   1.054
  -1.462  -3.532   1.054
  -1.205  -3.733   1.054
  -0.925  -3.903   1.054
  -0.627  -4.037   1.054
  -0.314  -4.134   1.054
   0.007  -4.193   1.054
   0.334  -4.213   1.054
   0.661  -4.193   1.054
   0.982  -4.134   1.054
   1.295  -4.037   1.054
   1.593  -3.903   1.054
   1.873  -3.733   1.054
   2.130  -3.532   1.054
   2.362  -3.300   1.054
   2.563  -3.043   1.054
   2.733  -2.763   1.054
   2.867  -2.465   1.054
   2.964  -2.152   1.054
   3.023  -1.831   1.054
   3.132  -1.504   0.745
   3.113  -1.179   0.745
   3.057  -0.859   0.745
  -2.166  -2.760   0.745
  -2.004  -3.042   0.745
  -1.809  -3.303   0.745
  -1.586  -3.539   0.745
  -1.337  -3.748   0.745
  -1.065  -3.927   0.745
  -0.774  -4.073   0.745
  -0.468  -4.184   0.745
  -0.152  -4.260   0.745
   0.171  -4.297   0.745
   0.497  -4.297   0.745
   0.820  -4.260   0.745
   1.136  -4.184   0.745
   1.442  -4.073   0.745
   1.733  -3.927   0.745
   2.005  -3.748   0.745
   2.254  -3.539   0.745
   2.477  -3.303   0.745
   2.672  -3.042   0.745
   2.834  -2.760   0.745
   2.963  -2.461   0.745
   3.057  -2.149   0.745
   3.113  -1.829   0.745
   3.186  -1.504   0.427
   3.167  -1.179   0.427
   3.112  -0.858   0.427
  -2.149  -2.906   0.427
  -1.973  -3.180   0.427
  -1.767  -3.432   0.427
  -1.534  -3.659   0.427
  -1.276  -3.858   0.427
  -0.997  -4.026   0.427
  -0.701  -4.162   0.427
  -0.391  -4.262   0.427
  -0.072  -4.327   0.427
   0.253  -4.355   0.427
   0.578  -4.345   0.427
   0.900  -4.299   0.427
   1.215  -4.216   0.427
   1.519  -4.098   0.427
   1.807  -3.946   0.427
   2.076  -3.762   0.427
   2.322  -3.549   0.427
   2.542  -3.309   0.427
   2.733  -3.046   0.427
   2.893  -2.762   0.427
   3.020  -2.462   0.427
   3.112  -2.150   0.427
   3.167  -1.829   0.427
   3.204  -1.504   0.106
   3.186  -1.183   0.106
  -2.096  -3.031   0.106
  -1.910  -3.293   0.106
  -1.695  -3.533   0.106
  -1.455  -3.748   0.106
  -1.193  -3.934   0.106
  -0.911  -4.090   0.106
  -0.614  -4.213   0.106
  -0.305  -4.302   0.106
   0.013  -4.356   0.106
   0.334  -4.374   0.106
   0.655  -4.356   0.106
   0.973  -4.302   0.106
   1.282  -4.213   0.106
   1.579  -4.090   0.106
   1.861  -3.934   0.106
   2.123  -3.748   0.106
   2.363  -3.533   0.106
   2.578  -3.293   0.106
   2.764  -3.031   0.106
   2.920  -2.749   0.106
   3.043  -2.452   0.106
   3.132  -2.143   0.106
   3.186  -1.825   0.106
   3.186  -1.504  -0.215
   3.167  -1.179  -0.215
  -2.149  -2.906  -0.215
  -1.973  -3.180  -0.215
  -1.767  -3.432  -0.215
  -1.534  -3.659  -0.215
  -1.276  -3.858  -0.215
  -0.997  -4.026  -0.215
  -0.701  -4.162  -0.215
  -0.391  -4.262  -0.215
  -0.072  -4.327  -0.215
   0.253  -4.355  -0.215
   0.578  -4.345  -0.215
   0.900  -4.299  -0.215
   1.215  -4.216  -0.215
   1.519  -4.098  -0.215
   1.807  -3.946  -0.215
   2.076  -3.762  -0.215
   2.322  -3.549  -0.215
   2.542  -3.309  -0.215
   2.733  -3.046  -0.215
   2.893  -2.762  -0.215
   3.020  -2.462  -0.215
   3.112  -2.150  -0.215
   3.167  -1.829  -0.215
   3.132  -1.504  -0.533
   3.113  -1.179  -0.533
  -2.004  -3.042  -0.533
  -1.809  -3.303  -0.533
  -1.586  -3.539  -0.533
  -1.337  -3.748  -0.533
  -1.065  -3.927  -0.533
  -0.774  -4.073  -0.533
  -0.468  -4.184  -0.533
  -0.152  -4.260  -0.533
   0.171  -4.297  -0.533
   0.497  -4.297  -0.533
   0.820  -4.260  -0.533
   1.136  -4.185  -0.533
   1.442  -4.073  -0.533
   1.733  -3.927  -0.533
   2.005  -3.748  -0.533
   2.254  -3.539  -0.533
   2.477  -3.303  -0.533
   2.672  -3.042  -0.533
   2.834  -2.760  -0.533
   2.963  -2.461  -0.533
   3.057  -2.149  -0.533
   3.113  -1.829  -0.533
   3.043  -1.504  -0.842
   3.023  -1.177  -0.842
  -1.895  -3.043  -0.842
  -1.694  -3.300  -0.842
  -1.462  -3.532  -0.842
  -1.205  -3.733  -0.842
  -0.925  -3.903  -0.842
  -0.627  -4.037  -0.842
  -0.314  -4.134  -0.842
   0.007  -4.193  -0.842
   0.334  -4.213  -0.842
   0.661  -4.193  -0.842
   0.982  -4.134  -0.842
   1.295  -4.037  -0.842
   1.593  -3.903  -0.842
   1.873  -3.733  -0.842
   2.130  -3.532  -0.842
   2.362  -3.300  -0.842
   2.563  -3.043  -0.842
   2.733  -2.763  -0.842
   2.867  -2.465  -0.842
   2.964  -2.152  -0.842
   3.023  -1.831  -0.842
   2.920  -1.504  -1.139
  -1.758  -3.024  -1.139
  -1.551  -3.274  -1.139
  -1.314  -3.496  -1.139
  -1.052  -3.687  -1.139
  -0.767  -3.844  -1.139
  -0.465  -3.963  -1.139
  -0.151  -4.044  -1.139
   0.172  -4.085  -1.139
   0.496  -4.085  -1.139
   0.819  -4.044  -1.139
   1.133  -3.963  -1.139
   1.435  -3.844  -1.139
   1.720  -3.687  -1.139
   1.982  -3.496  -1.139
   2.219  -3.274  -1.139
   2.426  -3.024  -1.139
   2.600  -2.750  -1.139
   2.738  -2.456  -1.139
   2.839  -2.147  -1.139
   2.899  -1.828  -1.139
   2.764  -1.504  -1.421
  -1.669  -2.879  -1.421
  -1.468  -3.134  -1.421
  -1.235  -3.360  -1.421
  -0.974  -3.552  -1.421
  -0.689  -3.708  -1.421
  -0.386  -3.825  -1.421
  -0.070  -3.900  -1.421
   0.253  -3.933  -1.421
   0.577  -3.922  -1.421
   0.897  -3.868  -1.421
   1.207  -3.772  -1.421
   1.502  -3.635  -1.421
   1.775  -3.460  -1.421
   2.023  -3.251  -1.421
   2.241  -3.010  -1.421
   2.425  -2.742  -1.421
   2.571  -2.453  -1.421
   2.678  -2.146  -1.421
   2.742  -1.828  -1.421
   2.578  -1.504  -1.683
  -1.442  -2.875  -1.683
  -1.223  -3.119  -1.683
  -0.972  -3.329  -1.683
  -0.692  -3.500  -1.683
  -0.391  -3.628  -1.683
  -0.074  -3.711  -1.683
   0.252  -3.746  -1.683
   0.579  -3.734  -1.683
   0.902  -3.675  -1.683
   1.212  -3.569  -1.683
   1.503  -3.419  -1.683
   1.769  -3.229  -1.683
   2.005  -3.001  -1.683
   2.205  -2.742  -1.683
   2.366  -2.456  -1.683
   2.483  -2.150  -1.683
   2.554  -1.831  -1.683
   2.363  -1.504  -1.923
  -1.185  -2.850  -1.923
  -0.949  -3.076  -1.923
  -0.681  -3.262  -1.923
  -0.386  -3.402  -1.923
  -0.072  -3.492  -1.923
   0.252  -3.532  -1.923
   0.579  -3.519  -1.923
   0.899  -3.453  -1.923
   1.204  -3.337  -1.923
   1.487  -3.174  -1.923
   1.740  -2.968  -1.923
   1.956  -2.723  -1.923
   2.131  -2.447  -1.923
   2.259  -2.147  -1.923
   2.337  -1.830  -1.923
   2.123  -1.504  -2.138
  -0.988  -2.710  -2.138
  -0.744  -2.932  -2.138
  -0.464  -3.106  -2.138
  -0.156  -3.225  -2.138
   0.169  -3.286  -2.138
   0.499  -3.286  -2.138
   0.824  -3.225  -2.138
   1.132  -3.106  -2.138
   1.412  -2.932  -2.138
   1.656  -2.710  -2.138
   1.855  -2.446  -2.138
   2.003  -2.150  -2.138
   2.093  -1.833  -2.138
   1.861  -1.504  -2.324
  -0.775  -2.554  -2.324
  -0.523  -2.768  -2.324
  -0.231  -2.922  -2.324
   0.087  -3.011  -2.324
   0.417  -3.029  -2.324
   0.742  -2.975  -2.324
   1.049  -2.853  -2.324
   1.323  -2.668  -2.324
   1.550  -2.428  -2.324
   1.720  -2.145  -2.324
   1.825  -1.832  -2.324
   1.579  -1.504  -2.480
  -0.744  -2.127  -2.480
  -0.547  -2.385  -2.480
  -0.289  -2.582  -2.480
   0.012  -2.707  -2.480
   0.334  -2.749  -2.480
   0.656  -2.707  -2.480
   0.957  -2.582  -2.480
   1.215  -2.385  -2.480
   1.412  -2.127  -2.480
   1.537  -1.826  -2.480
  -0.392  -2.113  -2.603
  -0.140  -2.325  -2.603
   0.169  -2.438  -2.603
   0.499  -2.438  -2.603
   0.808  -2.325  -2.603
   1.060  -2.113  -2.603
   1.225  -1.828  -2.603
   0.015  -2.057  -2.692
   0.334  -2.143  -2.692
   0.653  -2.057  -2.692
   0.887  -1.823  -2.692
   0.495  -1.782  -2.746
  -2.958   0.001   1.771
  -2.958  -0.321   1.771
  -2.889  -0.636   1.771
  -2.753  -0.928   1.771
  -2.559  -1.184   1.771
  -3.105   0.471   1.589
  -3.193   0.161   1.589
  -3.223  -0.160   1.589
  -3.193  -0.481   1.589
  -3.105  -0.791   1.589
  -2.961  -1.079   1.589
  -2.767  -1.336   1.589
  -2.529  -1.553   1.589
  -3.450  -0.001   1.380
  -3.450  -0.319   1.380
  -3.399  -0.634   1.380
  -3.298  -0.936   1.380
  -3.150  -1.218   1.380
  -2.959  -1.473   1.380
  -2.729  -1.694   1.380
  -2.467  -1.875   1.380
  -3.660  -0.320   1.146
  -3.614  -0.636   1.146
  -3.522  -0.942   1.146
  -3.386  -1.231   1.146
  -3.210  -1.498   1.146
  -2.996  -1.736   1.146
  -2.751  -1.940   1.146
  -2.478  -2.107   1.146
  -3.800  -0.632   0.890
  -3.717  -0.938   0.890
  -3.593  -1.229   0.890
  -3.432  -1.502   0.890
  -3.235  -1.750   0.890
  -3.008  -1.970   0.890
  -2.753  -2.158   0.890
  -2.475  -2.311   0.890
  -3.920  -0.787   0.615
  -3.823  -1.089   0.615
  -3.688  -1.375   0.615
  -3.518  -1.643   0.615
  -3.316  -1.887   0.615
  -3.085  -2.104   0.615
  -2.829  -2.290   0.615
  -2.551  -2.443   0.615
  -3.817  -1.388   0.325
  -3.652  -1.661   0.325
  -3.455  -1.913   0.325
  -3.230  -2.138   0.325
  -2.978  -2.335   0.325
  -2.705  -2.500   0.325
  -2.414  -2.631   0.325
  -3.758  -1.660   0.023
  -3.568  -1.915   0.023
  -3.350  -2.146   0.023
  -3.107  -2.350   0.023
  -2.842  -2.524   0.023
  -2.558  -2.667   0.023
  -2.260  -2.775   0.023
  -3.728  -1.795  -0.286
  -3.527  -2.041  -0.286
  -3.299  -2.263  -0.286
  -3.048  -2.457  -0.286
  -2.775  -2.621  -0.286
  -2.486  -2.753  -0.286
  -2.184  -2.851  -0.286
  -3.666  -1.906  -0.600
  -3.457  -2.140  -0.600
  -3.223  -2.349  -0.600
  -2.967  -2.531  -0.600
  -2.692  -2.683  -0.600
  -2.402  -2.803  -0.600
  -2.100  -2.890  -0.600
  -3.527  -2.041  -0.913
  -3.299  -2.263  -0.913
  -3.048  -2.457  -0.913
  -2.775  -2.621  -0.913
  -2.486  -2.753  -0.913
  -2.184  -2.851  -0.913
  -3.350  -2.146  -1.223
  -3.107  -2.350  -1.223
  -2.842  -2.524  -1.223
  -2.558  -2.667  -1.223
  -2.260  -2.775  -1.223
  -1.951  -2.848  -1.223
  -3.230  -2.138  -1.525
  -2.978  -2.335  -1.525
  -2.705  -2.500  -1.525
  -2.414  -2.631  -1.525
  -2.109  -2.726  -1.525
  -1.796  -2.784  -1.525
  -2.829  -2.290  -1.815
  -2.551  -2.443  -1.815
  -2.257  -2.559  -1.815
  -1.950  -2.638  -1.815
  -1.635  -2.678  -1.815
  -2.753  -2.158  -2.090
  -2.475  -2.311  -2.090
  -2.179  -2.424  -2.090
  -1.871  -2.498  -2.090
  -1.556  -2.530  -2.090
  -1.240  -2.519  -2.090
  -2.478  -2.107  -2.346
  -2.184  -2.232  -2.346
  -1.875  -2.313  -2.346
  -1.557  -2.348  -2.346
  -1.238  -2.336  -2.346
  -2.179  -2.011  -2.580
  -1.873  -2.100  -2.580
  -1.557  -2.138  -2.580
  -1.238  -2.125  -2.580
  -0.926  -2.062  -2.580
  -1.638  -1.898  -2.789
  -1.316  -1.898  -2.789
  -0.999  -1.839  -2.789
  -0.699  -1.723  -2.789
  -1.078  -1.595  -2.971
  -0.779  -1.476  -2.971
  -3.176   0.856   1.549
  -3.451   1.204   1.416
  -3.497   0.856   1.416
  -3.451   0.508   1.416
  -3.792   1.034   1.248
  -3.792   0.678   1.248
  -3.715   0.329   1.248
  -4.052   1.211   1.047
  -4.085   0.856   1.047
  -4.052   0.501   1.047
  -3.954   0.158   1.047
  -3.795  -0.161   1.047
  -4.280   1.381   0.815
  -4.337   1.032   0.815
  -4.337   0.680   0.815
  -4.280   0.331   0.815
  -4.169  -0.003   0.815
  -4.005  -0.316   0.815
  -4.416   1.722   0.556
  -4.518   1.383   0.556
  -4.632   1.717   0.272
  -4.749   1.884  -0.032
  -4.743   2.216  -0.353
  -4.677   2.517  -0.687
  -4.644   2.667  -1.030
  -4.576   2.789  -1.377
  -4.777   2.505  -1.377
  -4.422   2.939  -1.724
  -4.644   2.667  -1.724
  -0.078   3.054  -2.067
  -0.347   3.280  -2.067
  -3.957   3.280  -2.067
  -4.226   3.054  -2.067
  -4.467   2.799  -2.067
  -4.677   2.517  -2.067
  -0.792   3.447  -2.401
  -3.512   3.447  -2.401
  -3.814   3.264  -2.401
  -4.092   3.046  -2.401
  -4.342   2.796  -2.401
  -4.560   2.518  -2.401
  -2.852  -1.985  -2.401
  -2.505  -2.049  -2.401
  -1.289   3.512  -2.722
  -1.629   3.600  -2.722
  -1.977   3.643  -2.722
  -2.327   3.643  -2.722
  -2.675   3.600  -2.722
  -3.015   3.512  -2.722
  -3.341   3.383  -2.722
  -3.649   3.214  -2.722
  -3.932   3.008  -2.722
  -4.188   2.768  -2.722
  -4.412   2.498  -2.722
  -2.675  -1.888  -2.722
  -2.327  -1.931  -2.722
  -1.977  -1.931  -2.722
  -1.889   3.468  -3.026
  -2.240   3.479  -3.026
  -2.589   3.444  -3.026
  -2.930   3.363  -3.026
  -3.257   3.237  -3.026
  -3.564   3.068  -3.026
  -3.847   2.860  -3.026
  -4.099   2.617  -3.026
  -4.316   2.342  -3.026
  -2.930  -1.651  -3.026
  -2.589  -1.732  -3.026
  -2.240  -1.767  -3.026
  -1.889  -1.756  -3.026
  -1.544  -1.697  -3.026
  -1.209  -1.593  -3.026
  -0.891  -1.446  -3.026
  -2.592   3.239  -3.310
  -2.935   3.150  -3.310
  -3.260   3.011  -3.310
  -3.562   2.827  -3.310
  -3.834   2.601  -3.310
  -4.070   2.337  -3.310
  -4.266   2.042  -3.310
  -2.935  -1.438  -3.310
  -2.592  -1.527  -3.310
  -2.241  -1.566  -3.310
  -1.887  -1.553  -3.310
  -1.539  -1.489  -3.310
  -2.929   2.906  -3.569
  -3.248   2.754  -3.569
  -3.538   2.554  -3.569
  -3.793   2.310  -3.569
  -4.005   2.028  -3.569
  -2.929  -1.194  -3.569
  -2.590  -1.292  -3.569
  -2.240  -1.334  -3.569
  -3.317   2.398  -3.801
  -3.580   2.158  -3.801
  -3.795   1.874  -3.801
  -3.954   1.554  -3.801
  -3.014  -0.874  -3.801
  -2.681  -1.003  -3.801
  -3.349   1.990  -4.002
  -3.565   1.706  -4.002
  -3.715   1.383  -4.002
  -3.792   1.034  -4.002
  -3.078  -0.509  -4.002
  -3.497   0.856  -4.170
  -3.451   0.508  -4.170
  -3.317   0.183  -4.170
  -4.490   2.095   0.291
  -4.549   2.388   0.022
  -4.632   2.386  -0.258
  -4.546   2.807  -0.546
  -4.645   2.529  -0.546
  -4.509   2.929  -0.837
  -4.620   2.660  -0.837
  -4.416   3.071  -1.128
  -4.108   3.430  -1.416
  -4.284   3.194  -1.416
  -3.793   3.638  -1.696
  -4.003   3.428  -1.696
  -4.186   3.195  -1.696
  -3.421   3.779  -1.965
  -3.659   3.606  -1.965
  -3.874   3.405  -1.965
  -3.093   3.798  -2.220
  -3.351   3.657  -2.220
  -3.587   3.482  -2.220
  -2.535   3.800  -2.458
  -2.822   3.725  -2.458
  -3.095   3.609  -2.458
  -0.022   2.983  -2.327
  -0.260   3.151  -2.327
   0.158   2.803  -2.618