 $system timlim=999888777
         mwords=100 $end
 $contrl exetyp=run
         runtyp=energy scftyp=rhf
         icharg=-1 mult=1 units=angs coord=unique
         maxit=50 ispher=1 qmttol=1d-6 icut=12 itol=22 $end
 $scf    dirscf=.t. diis=.t. soscf=.f.
         fdiff=.f. conv=1d-6
         npreo(1)=0,-1,1,9999 $end
 $elpot  iepot=1 where=points $end
 $basis  gbasis=n311 ngauss=6
         ndfunc=1 npfunc=1 diffsp=.t. diffs=.t. $end
 $DATA
TS1a_hfd_irc200_all_revmov.pdb
C1
P     15.0    -0.04200   0.00500  -0.02200 
O      8.0    -0.12900   0.30200   1.50200 
O      8.0     0.91400   0.76600  -0.80300 
F      9.0     0.34400  -1.51000   0.06300 
O      8.0    -1.47700  -0.16000  -0.60000 
C      6.0    -2.15200   0.85600  -1.37700 
H      1.0    -2.15800   1.80000  -0.83500 
H      1.0    -1.64600   0.94600  -2.32900 
H      1.0    -3.14900   0.46900  -1.52600 
C      6.0     0.06300   1.61500   2.07600 
H      1.0    -0.16800   1.49100   3.12500 
H      1.0     1.10300   1.88800   1.95900 
H      1.0    -0.59800   2.33400   1.59800 
O      8.0    -1.84800   3.26600   0.41900 
H      1.0    -1.59300   4.11100   0.07000 
 $END
 $POINTS
ANGS 3131
   2.429  -0.738   2.036
  -2.346  -1.576   1.734
  -2.114  -1.869   1.734
   2.653  -0.733   1.734
   2.727  -0.367   1.734
   2.931   0.005   1.410
  -2.209  -2.030   1.410
   2.838  -0.734   1.410
   2.908  -0.368   1.410
   3.073   0.005   1.068
   3.050   0.380   1.068
   2.982  -0.740   1.068
   3.050  -0.370   1.068
   3.175   0.005   0.712
   3.089  -0.737   0.712
   3.154  -0.369   0.712
   3.152  -0.738   0.347
   3.216  -0.369   0.347
   3.175  -0.729  -0.022
   1.479  -1.381  -2.602
  -0.326  -1.728  -2.816
   0.053  -1.748  -2.816
   0.428  -1.687  -2.816
   0.780  -1.546  -2.816
   1.095  -1.333  -2.816
  -0.413  -1.378  -2.995
  -0.042  -1.427  -2.995
   0.329  -1.378  -2.995
   0.674  -1.235  -2.995
   0.970  -1.007  -2.995
   0.147  -1.068  -3.137
   0.503  -0.939  -3.137
   0.325  -0.631  -3.239
  -0.965  -0.931   3.873
  -0.680  -1.082   3.873
  -0.370  -1.168   3.873
  -0.048  -1.186   3.873
   0.270  -1.133   3.873
   0.569  -1.014   3.873
   0.835  -0.833   3.873
  -1.613  -0.617   3.691
  -1.419  -0.874   3.691
  -1.181  -1.091   3.691
  -0.907  -1.261   3.691
  -0.607  -1.377   3.691
  -0.290  -1.436   3.691
   0.032  -1.436   3.691
   0.349  -1.377   3.691
   0.649  -1.261   3.691
   0.923  -1.091   3.691
   1.161  -0.874   3.691
  -1.950  -0.474   3.482
  -1.802  -0.756   3.482
  -1.611  -1.011   3.482
  -1.381  -1.232   3.482
  -1.119  -1.413   3.482
  -0.831  -1.549   3.482
  -0.525  -1.638   3.482
  -0.209  -1.676   3.482
   0.110  -1.663   3.482
   0.422  -1.600   3.482
   0.720  -1.487   3.482
   0.996  -1.327   3.482
   1.243  -1.126   3.482
   1.454  -0.887   3.482
  -2.266  -0.174   3.248
  -2.174  -0.480   3.248
  -2.038  -0.769   3.248
  -1.862  -1.036   3.248
  -1.648  -1.274   3.248
  -1.403  -1.478   3.248
  -1.130  -1.645   3.248
  -0.836  -1.770   3.248
  -0.527  -1.851   3.248
  -0.209  -1.886   3.248
   0.110  -1.874   3.248
   0.425  -1.816   3.248
   0.727  -1.713   3.248
   1.011  -1.567   3.248
   1.271  -1.381   3.248
   1.501  -1.159   3.248
   1.697  -0.906   3.248
  -2.452  -0.170   2.992
  -2.369  -0.476   2.992
  -2.245  -0.767   2.992
  -2.084  -1.040   2.992
  -1.887  -1.288   2.992
  -1.660  -1.508   2.992
  -1.405  -1.696   2.992
  -1.127  -1.849   2.992
  -0.831  -1.962   2.992
  -0.523  -2.036   2.992
  -0.208  -2.068   2.992
   0.108  -2.057   2.992
   0.421  -2.004   2.992
   0.723  -1.910   2.992
   1.010  -1.777   2.992
   1.277  -1.607   2.992
   1.519  -1.402   2.992
   1.732  -1.167   2.992
   1.911  -0.906   2.992
   2.054  -0.624   2.992
  -2.632  -0.014   2.717
  -2.572  -0.325   2.717
  -2.475  -0.627   2.717
  -2.340  -0.913   2.717
  -2.170  -1.181   2.717
  -1.968  -1.425   2.717
  -1.737  -1.642   2.717
  -1.481  -1.828   2.717
  -1.203  -1.981   2.717
  -0.909  -2.097   2.717
  -0.602  -2.176   2.717
   1.479  -1.642   2.717
   1.710  -1.425   2.717
   1.912  -1.181   2.717
   2.082  -0.913   2.717
   2.217  -0.627   2.717
  -2.772   0.302   2.427
  -2.753  -0.017   2.427
  -2.695  -0.330   2.427
  -2.600  -0.635   2.427
  -2.469  -0.926   2.427
  -2.304  -1.199   2.427
  -2.107  -1.451   2.427
  -1.882  -1.676   2.427
  -1.630  -1.873   2.427
  -1.357  -2.038   2.427
   2.046  -1.199   2.427
   2.211  -0.926   2.427
   2.342  -0.635   2.427
  -2.859   0.302   2.125
  -2.840  -0.015   2.125
  -2.785  -0.328   2.125
  -2.694  -0.632   2.125
  -2.568  -0.923   2.125
  -2.410  -1.198   2.125
  -2.220  -1.453   2.125
  -2.002  -1.684   2.125
  -1.759  -1.888   2.125
   2.310  -0.923   2.125
   2.436  -0.632   2.125
   2.527  -0.328   2.125
  -2.907   0.461   1.816
  -2.907   0.143   1.816
   3.285   0.766   0.687
   3.264   1.082   0.687
   3.201   0.140   0.687
   3.264   0.450   0.687
   3.437   0.766   0.412
   3.417   1.082   0.412
   3.357   1.393   0.412
   3.260   1.695   0.412
   3.260  -0.163   0.412
   3.357   0.139   0.412
   3.417   0.450   0.412
   3.557   0.766   0.122
   3.538   1.085   0.122
   3.480   1.398   0.122
   3.385   1.703   0.122
   3.254   1.994   0.122
   3.089   2.267   0.122
   2.892   2.519   0.122
   3.254  -0.462   0.122
   3.385  -0.171   0.122
   3.480   0.134   0.122
   3.538   0.447   0.122
   3.644   0.766  -0.180
   3.625   1.083  -0.180
   3.570   1.396  -0.180
   3.479   1.700  -0.180
   3.353   1.991  -0.180
   3.195   2.266  -0.180
   3.005   2.521  -0.180
   2.787   2.752  -0.180
   2.544   2.956  -0.180
   2.279   3.130  -0.180
   1.995   3.273  -0.180
   1.697   3.381  -0.180
   1.388   3.454  -0.180
   1.073   3.491  -0.180
   3.195  -0.734  -0.180
   3.353  -0.459  -0.180
   3.479  -0.168  -0.180
   3.570   0.136  -0.180
   3.625   0.449  -0.180
   3.696   0.766  -0.489
   3.678   1.083  -0.489
   3.624   1.396  -0.489
   3.535   1.701  -0.489
   3.411   1.994  -0.489
   3.255   2.270  -0.489
   3.068   2.527  -0.489
   2.853   2.761  -0.489
   2.613   2.969  -0.489
   2.351   3.149  -0.489
   2.070   3.297  -0.489
   1.774   3.412  -0.489
   1.467   3.493  -0.489
   1.152   3.538  -0.489
   3.255  -0.738  -0.489
   3.411  -0.462  -0.489
   3.535  -0.169  -0.489
   3.624   0.136  -0.489
   3.678   0.449  -0.489
   3.714   0.766  -0.803
   3.696   1.080  -0.803
   3.644   1.389  -0.803
   3.557   1.691  -0.803
   3.437   1.981  -0.803
   3.285   2.256  -0.803
   3.103   2.512  -0.803
   2.894   2.746  -0.803
   2.660   2.955  -0.803
   2.404   3.137  -0.803
   2.129   3.289  -0.803
   1.839   3.409  -0.803
   1.537   3.496  -0.803
   1.228   3.548  -0.803
   0.914   3.566  -0.803
   3.103  -0.980  -0.803
   3.285  -0.724  -0.803
   3.437  -0.449  -0.803
   3.557  -0.159  -0.803
   3.644   0.143  -0.803
   3.696   0.452  -0.803
   3.696   0.766  -1.116
   3.678   1.083  -1.116
   3.624   1.396  -1.116
   3.535   1.701  -1.116
   3.411   1.994  -1.116
   3.255   2.270  -1.116
   3.068   2.527  -1.116
   2.853   2.761  -1.116
   2.613   2.969  -1.116
   2.351   3.149  -1.116
   2.070   3.297  -1.116
   1.774   3.412  -1.116
   1.467   3.493  -1.116
   1.152   3.538  -1.116
   0.835   3.547  -1.116
   3.068  -0.995  -1.116
   3.255  -0.738  -1.116
   3.411  -0.462  -1.116
   3.535  -0.169  -1.116
   3.624   0.136  -1.116
   3.678   0.449  -1.116
   3.644   0.766  -1.426
   3.625   1.083  -1.426
   3.570   1.396  -1.426
   3.479   1.700  -1.426
   3.353   1.991  -1.426
   3.195   2.266  -1.426
   3.005   2.521  -1.426
   2.787   2.752  -1.426
   2.544   2.956  -1.426
   2.279   3.130  -1.426
   1.995   3.273  -1.426
   1.697   3.381  -1.426
   1.388   3.454  -1.426
   1.073   3.491  -1.426
   0.755   3.491  -1.426
   0.440   3.454  -1.426
   2.787  -1.220  -1.426
   3.005  -0.989  -1.426
   3.195  -0.734  -1.426
   3.353  -0.459  -1.426
   3.479  -0.168  -1.426
   3.570   0.136  -1.426
   3.625   0.449  -1.426
   3.557   0.766  -1.728
   3.538   1.085  -1.728
   3.480   1.398  -1.728
   3.385   1.703  -1.728
   3.254   1.994  -1.728
   3.089   2.267  -1.728
   2.892   2.519  -1.728
   2.667   2.744  -1.728
   2.415   2.941  -1.728
   2.142   3.106  -1.728
   1.851   3.237  -1.728
   1.546   3.332  -1.728
   1.233   3.390  -1.728
   0.914   3.409  -1.728
   0.595   3.390  -1.728
   0.282   3.332  -1.728
   2.667  -1.212  -1.728
   2.892  -0.987  -1.728
   3.089  -0.735  -1.728
   3.254  -0.462  -1.728
   3.385  -0.171  -1.728
   3.480   0.134  -1.728
   3.538   0.447  -1.728
   3.437   0.766  -2.018
   3.417   1.082  -2.018
   3.357   1.393  -2.018
   3.260   1.695  -2.018
   3.125   1.981  -2.018
   2.955   2.249  -2.018
   2.753   2.493  -2.018
   2.522   2.710  -2.018
   2.266   2.896  -2.018
   1.988   3.049  -2.018
   1.694   3.165  -2.018
   1.387   3.244  -2.018
   1.072   3.284  -2.018
   0.756   3.284  -2.018
   0.441   3.244  -2.018
   0.134   3.165  -2.018
   2.522  -1.178  -2.018
   2.753  -0.961  -2.018
   2.955  -0.717  -2.018
   3.125  -0.449  -2.018
   3.260  -0.163  -2.018
   3.357   0.139  -2.018
   3.417   0.450  -2.018
   3.285   0.766  -2.293
   3.264   1.082  -2.293
   3.201   1.392  -2.293
   3.097   1.692  -2.293
   2.954   1.974  -2.293
   2.775   2.235  -2.293
   2.562   2.470  -2.293
   2.320   2.675  -2.293
   2.053   2.845  -2.293
   1.766   2.978  -2.293
   1.464   3.072  -2.293
   1.151   3.125  -2.293
   0.835   3.136  -2.293
   0.520   3.104  -2.293
   0.212   3.030  -2.293
   2.053  -1.313  -2.293
   2.320  -1.143  -2.293
   2.562  -0.938  -2.293
   2.775  -0.703  -2.293
   2.954  -0.442  -2.293
   3.097  -0.160  -2.293
   3.201   0.140  -2.293
   3.264   0.450  -2.293
   3.103   0.766  -2.549
   3.080   1.085  -2.549
   3.010   1.397  -2.549
   2.896   1.695  -2.549
   2.740   1.974  -2.549
   2.544   2.227  -2.549
   2.314   2.449  -2.549
   2.054   2.635  -2.549
   1.770   2.781  -2.549
   1.468   2.884  -2.549
   1.153   2.942  -2.549
   0.834   2.954  -2.549
   0.516   2.919  -2.549
   0.207   2.838  -2.549
   1.770  -1.249  -2.549
   2.054  -1.103  -2.549
   2.314  -0.917  -2.549
   2.544  -0.695  -2.549
   2.740  -0.442  -2.549
   2.896  -0.163  -2.549
   3.010   0.135  -2.549
   3.080   0.447  -2.549
   2.894   0.766  -2.783
   2.868   1.084  -2.783
   2.792   1.393  -2.783
   2.667   1.686  -2.783
   2.497   1.955  -2.783
   2.286   2.194  -2.783
   2.039   2.395  -2.783
   1.763   2.555  -2.783
   1.465   2.668  -2.783
   1.153   2.731  -2.783
   0.834   2.744  -2.783
   0.518   2.706  -2.783
   1.465  -1.136  -2.783
   1.763  -1.023  -2.783
   2.039  -0.863  -2.783
   2.286  -0.662  -2.783
   2.497  -0.423  -2.783
   2.667  -0.154  -2.783
   2.792   0.139  -2.783
   2.868   0.448  -2.783
   2.660   0.766  -2.992
   2.630   1.087  -2.992
   2.542   1.397  -2.992
   2.398   1.685  -2.992
   2.204   1.942  -2.992
   1.966   2.159  -2.992
   1.692   2.329  -2.992
   1.392   2.445  -2.992
   1.075   2.504  -2.992
   0.753   2.504  -2.992
   0.436   2.445  -2.992
   1.075  -0.972  -2.992
   1.392  -0.913  -2.992
   1.692  -0.797  -2.992
   1.966  -0.627  -2.992
   2.204  -0.410  -2.992
   2.398  -0.153  -2.992
   2.542   0.135  -2.992
   2.630   0.445  -2.992
   2.404   0.766  -3.174
   2.369   1.086  -3.174
   2.266   1.392  -3.174
   2.100   1.668  -3.174
   1.878   1.901  -3.174
   1.612   2.082  -3.174
   1.313   2.201  -3.174
   0.995   2.254  -3.174
   0.673   2.236  -3.174
   0.673  -0.704  -3.174
   0.995  -0.722  -3.174
   1.313  -0.669  -3.174
   1.612  -0.550  -3.174
   1.878  -0.369  -3.174
   2.100  -0.136  -3.174
   2.266   0.140  -3.174
   2.369   0.446  -3.174
   2.129   0.766  -3.326
   2.087   1.080  -3.326
   1.966   1.373  -3.326
   1.773   1.625  -3.326
   1.521   1.818  -3.326
   1.228   1.939  -3.326
   0.914   1.981  -3.326
   0.600   1.939  -3.326
   0.600  -0.407  -3.326
   0.914  -0.449  -3.326
   1.228  -0.407  -3.326
   1.521  -0.286  -3.326
   1.773  -0.093  -3.326
   1.966   0.159  -3.326
   2.087   0.452  -3.326
   1.839   0.766  -3.446
   1.783   1.082  -3.446
   1.622   1.360  -3.446
   1.376   1.567  -3.446
   1.075   1.677  -3.446
   0.753   1.677  -3.446
   0.753  -0.145  -3.446
   1.075  -0.145  -3.446
   1.376  -0.035  -3.446
   1.622   0.172  -3.446
   1.783   0.450  -3.446
   1.537   0.766  -3.533
   1.454   1.078  -3.533
   1.226   1.306  -3.533
   0.914   1.389  -3.533
   0.602   0.226  -3.533
   0.914   0.143  -3.533
   1.226   0.226  -3.533
   1.454   0.454  -3.533
   1.228   0.766  -3.585
   1.071   1.038  -3.585
   0.757   1.038  -3.585
   0.757   0.494  -3.585
   1.071   0.494  -3.585
   0.914   0.766  -3.603
   0.344  -2.149   2.861
   0.663  -2.063   2.861
  -0.130  -2.331   2.772
   0.179  -2.443   2.772
   0.509  -2.444   2.772
   0.818  -2.331   2.772
   1.070  -2.119   2.772
   1.235  -1.834   2.772
  -0.537  -2.391   2.649
  -0.279  -2.588   2.649
   0.022  -2.713   2.649
   0.344  -2.755   2.649
   0.666  -2.713   2.649
   0.967  -2.588   2.649
   1.225  -2.391   2.649
   1.422  -2.133   2.649
   1.547  -1.832   2.649
   1.871  -1.510   2.493
  -0.964  -2.297   2.493
  -0.765  -2.560   2.493
  -0.513  -2.774   2.493
  -0.221  -2.928   2.493
   0.097  -3.017   2.493
   0.427  -3.035   2.493
   0.752  -2.981   2.493
   1.059  -2.859   2.493
   1.333  -2.674   2.493
   1.560  -2.434   2.493
   1.730  -2.151   2.493
   1.835  -1.838   2.493
   2.133  -1.510   2.307
  -1.325  -2.156   2.307
  -1.177  -2.452   2.307
  -0.978  -2.716   2.307
  -0.734  -2.938   2.307
  -0.454  -3.112   2.307
  -0.146  -3.231   2.307
   0.179  -3.292   2.307
   0.509  -3.292   2.307
   0.834  -3.231   2.307
   1.142  -3.112   2.307
   1.422  -2.938   2.307
   1.666  -2.716   2.307
   1.865  -2.452   2.307
   2.013  -2.156   2.307
   2.103  -1.839   2.307
   2.373  -1.510   2.092
   2.347  -1.184   2.092
  -1.626  -1.996   2.092
  -1.523  -2.305   2.092
  -1.371  -2.595   2.092
  -1.175  -2.856   2.092
  -0.939  -3.082   2.092
  -0.671  -3.268   2.092
  -0.376  -3.408   2.092
  -0.062  -3.498   2.092
   0.262  -3.538   2.092
   0.589  -3.525   2.092
   0.909  -3.459   2.092
   1.214  -3.343   2.092
   1.497  -3.180   2.092
   1.750  -2.974   2.092
   1.966  -2.729   2.092
   2.141  -2.453   2.092
   2.269  -2.153   2.092
   2.347  -1.836   2.092
   2.588  -1.510   1.852
   2.564  -1.183   1.852
  -1.752  -2.312   1.852
  -1.613  -2.608   1.852
  -1.432  -2.881   1.852
  -1.213  -3.125   1.852
  -0.962  -3.335   1.852
  -0.682  -3.506   1.852
  -0.381  -3.634   1.852
  -0.064  -3.717   1.852
   0.262  -3.752   1.852
   0.589  -3.740   1.852
   0.912  -3.681   1.852
   1.222  -3.575   1.852
   1.513  -3.425   1.852
   1.779  -3.235   1.852
   2.015  -3.007   1.852
   2.215  -2.748   1.852
   2.376  -2.462   1.852
   2.493  -2.156   1.852
   2.564  -1.837   1.852
   2.774  -1.510   1.590
   2.752  -1.186   1.590
  -1.952  -2.307   1.590
  -1.825  -2.606   1.590
  -1.659  -2.885   1.590
  -1.458  -3.140   1.590
  -1.225  -3.366   1.590
  -0.964  -3.558   1.590
  -0.679  -3.714   1.590
  -0.376  -3.831   1.590
  -0.060  -3.906   1.590
   0.263  -3.939   1.590
   0.587  -3.928   1.590
   0.907  -3.874   1.590
   1.217  -3.778   1.590
   1.512  -3.641   1.590
   1.785  -3.466   1.590
   2.033  -3.257   1.590
   2.251  -3.016   1.590
   2.435  -2.748   1.590
   2.581  -2.459   1.590
   2.688  -2.152   1.590
   2.752  -1.834   1.590
   2.930  -1.510   1.308
   2.909  -1.186   1.308
  -2.161  -2.153   1.308
  -2.060  -2.462   1.308
  -1.922  -2.756   1.308
  -1.748  -3.030   1.308
  -1.541  -3.280   1.308
  -1.304  -3.502   1.308
  -1.042  -3.693   1.308
  -0.757  -3.850   1.308
  -0.455  -3.969   1.308
  -0.141  -4.050   1.308
   0.182  -4.091   1.308
   0.506  -4.091   1.308
   0.829  -4.050   1.308
   1.143  -3.969   1.308
   1.445  -3.850   1.308
   1.730  -3.693   1.308
   1.992  -3.502   1.308
   2.229  -3.280   1.308
   2.436  -3.030   1.308
   2.610  -2.756   1.308
   2.748  -2.462   1.308
   2.849  -2.153   1.308
   2.909  -1.834   1.308
   3.053  -1.510   1.011
   3.033  -1.183   1.011
   2.974  -0.862   1.011
  -2.189  -2.471   1.011
  -2.055  -2.769   1.011
  -1.885  -3.049   1.011
  -1.684  -3.306   1.011
  -1.452  -3.538   1.011
  -1.195  -3.739   1.011
  -0.915  -3.909   1.011
  -0.617  -4.043   1.011
  -0.304  -4.140   1.011
   0.017  -4.199   1.011
   0.344  -4.219   1.011
   0.671  -4.199   1.011
   0.992  -4.140   1.011
   1.305  -4.043   1.011
   1.603  -3.909   1.011
   1.883  -3.739   1.011
   2.140  -3.538   1.011
   2.372  -3.306   1.011
   2.573  -3.049   1.011
   2.743  -2.769   1.011
   2.877  -2.471   1.011
   2.974  -2.158   1.011
   3.033  -1.837   1.011
   3.142  -1.510   0.702
   3.123  -1.185   0.702
   3.067  -0.865   0.702
  -2.156  -2.766   0.702
  -1.994  -3.048   0.702
  -1.799  -3.309   0.702
  -1.576  -3.545   0.702
  -1.327  -3.754   0.702
  -1.055  -3.933   0.702
  -0.764  -4.079   0.702
  -0.458  -4.190   0.702
  -0.142  -4.266   0.702
   0.181  -4.303   0.702
   0.507  -4.303   0.702
   0.830  -4.266   0.702
   1.146  -4.190   0.702
   1.452  -4.079   0.702
   1.743  -3.933   0.702
   2.015  -3.754   0.702
   2.264  -3.545   0.702
   2.487  -3.309   0.702
   2.682  -3.048   0.702
   2.844  -2.766   0.702
   2.973  -2.467   0.702
   3.067  -2.155   0.702
   3.123  -1.835   0.702
   3.196  -1.510   0.384
   3.177  -1.185   0.384
   3.122  -0.864   0.384
  -2.139  -2.912   0.384
  -1.963  -3.186   0.384
  -1.757  -3.438   0.384
  -1.524  -3.665   0.384
  -1.266  -3.864   0.384
  -0.987  -4.032   0.384
  -0.691  -4.168   0.384
  -0.381  -4.268   0.384
  -0.062  -4.333   0.384
   0.263  -4.361   0.384
   0.588  -4.351   0.384
   0.910  -4.305   0.384
   1.225  -4.222   0.384
   1.529  -4.104   0.384
   1.817  -3.952   0.384
   2.086  -3.768   0.384
   2.332  -3.555   0.384
   2.552  -3.315   0.384
   2.743  -3.052   0.384
   2.903  -2.768   0.384
   3.030  -2.468   0.384
   3.122  -2.156   0.384
   3.177  -1.835   0.384
   3.214  -1.510   0.063
   3.196  -1.189   0.063
   3.142  -0.871   0.063
  -2.086  -3.037   0.063
  -1.900  -3.299   0.063
  -1.685  -3.539   0.063
  -1.445  -3.754   0.063
  -1.183  -3.940   0.063
  -0.901  -4.096   0.063
  -0.604  -4.219   0.063
  -0.295  -4.308   0.063
   0.023  -4.362   0.063
   0.344  -4.380   0.063
   0.665  -4.362   0.063
   0.983  -4.308   0.063
   1.292  -4.219   0.063
   1.589  -4.096   0.063
   1.871  -3.940   0.063
   2.133  -3.754   0.063
   2.373  -3.539   0.063
   2.588  -3.299   0.063
   2.774  -3.037   0.063
   2.930  -2.755   0.063
   3.053  -2.458   0.063
   3.142  -2.149   0.063
   3.196  -1.831   0.063
   3.196  -1.510  -0.258
   3.177  -1.185  -0.258
  -2.139  -2.912  -0.258
  -1.963  -3.186  -0.258
  -1.757  -3.438  -0.258
  -1.524  -3.665  -0.258
  -1.266  -3.864  -0.258
  -0.987  -4.032  -0.258
  -0.691  -4.168  -0.258
  -0.381  -4.268  -0.258
  -0.062  -4.333  -0.258
   0.263  -4.361  -0.258
   0.588  -4.351  -0.258
   0.910  -4.305  -0.258
   1.225  -4.222  -0.258
   1.529  -4.104  -0.258
   1.817  -3.952  -0.258
   2.086  -3.768  -0.258
   2.332  -3.555  -0.258
   2.552  -3.315  -0.258
   2.743  -3.052  -0.258
   2.903  -2.768  -0.258
   3.030  -2.468  -0.258
   3.122  -2.156  -0.258
   3.177  -1.835  -0.258
   3.142  -1.510  -0.576
   3.123  -1.185  -0.576
  -1.994  -3.048  -0.576
  -1.799  -3.309  -0.576
  -1.576  -3.545  -0.576
  -1.327  -3.754  -0.576
  -1.055  -3.933  -0.576
  -0.764  -4.079  -0.576
  -0.458  -4.190  -0.576
  -0.142  -4.266  -0.576
   0.181  -4.303  -0.576
   0.507  -4.303  -0.576
   0.830  -4.266  -0.576
   1.146  -4.191  -0.576
   1.452  -4.079  -0.576
   1.743  -3.933  -0.576
   2.015  -3.754  -0.576
   2.264  -3.545  -0.576
   2.487  -3.309  -0.576
   2.682  -3.048  -0.576
   2.844  -2.766  -0.576
   2.973  -2.467  -0.576
   3.067  -2.155  -0.576
   3.123  -1.835  -0.576
   3.053  -1.510  -0.885
   3.033  -1.183  -0.885
  -1.885  -3.049  -0.885
  -1.684  -3.306  -0.885
  -1.452  -3.538  -0.885
  -1.195  -3.739  -0.885
  -0.915  -3.909  -0.885
  -0.617  -4.043  -0.885
  -0.304  -4.140  -0.885
   0.017  -4.199  -0.885
   0.344  -4.219  -0.885
   0.671  -4.199  -0.885
   0.992  -4.140  -0.885
   1.305  -4.043  -0.885
   1.603  -3.909  -0.885
   1.883  -3.739  -0.885
   2.140  -3.538  -0.885
   2.372  -3.306  -0.885
   2.573  -3.049  -0.885
   2.743  -2.769  -0.885
   2.877  -2.471  -0.885
   2.974  -2.158  -0.885
   3.033  -1.837  -0.885
   2.930  -1.510  -1.182
   2.909  -1.186  -1.182
  -1.748  -3.030  -1.182
  -1.541  -3.280  -1.182
  -1.304  -3.502  -1.182
  -1.042  -3.693  -1.182
  -0.757  -3.850  -1.182
  -0.455  -3.969  -1.182
  -0.141  -4.050  -1.182
   0.182  -4.091  -1.182
   0.506  -4.091  -1.182
   0.829  -4.050  -1.182
   1.143  -3.969  -1.182
   1.445  -3.850  -1.182
   1.730  -3.693  -1.182
   1.992  -3.502  -1.182
   2.229  -3.280  -1.182
   2.436  -3.030  -1.182
   2.610  -2.756  -1.182
   2.748  -2.462  -1.182
   2.849  -2.153  -1.182
   2.909  -1.834  -1.182
   2.774  -1.510  -1.464
  -1.659  -2.885  -1.464
  -1.458  -3.140  -1.464
  -1.225  -3.366  -1.464
  -0.964  -3.558  -1.464
  -0.679  -3.714  -1.464
  -0.376  -3.831  -1.464
  -0.060  -3.906  -1.464
   0.263  -3.939  -1.464
   0.587  -3.928  -1.464
   0.907  -3.874  -1.464
   1.217  -3.778  -1.464
   1.512  -3.641  -1.464
   1.785  -3.466  -1.464
   2.033  -3.257  -1.464
   2.251  -3.016  -1.464
   2.435  -2.748  -1.464
   2.581  -2.459  -1.464
   2.688  -2.152  -1.464
   2.752  -1.834  -1.464
   2.588  -1.510  -1.726
  -1.432  -2.881  -1.726
  -1.213  -3.125  -1.726
  -0.962  -3.335  -1.726
  -0.682  -3.506  -1.726
  -0.381  -3.634  -1.726
  -0.064  -3.717  -1.726
   0.262  -3.752  -1.726
   0.589  -3.740  -1.726
   0.912  -3.681  -1.726
   1.222  -3.575  -1.726
   1.513  -3.425  -1.726
   1.779  -3.235  -1.726
   2.015  -3.007  -1.726
   2.215  -2.748  -1.726
   2.376  -2.462  -1.726
   2.493  -2.156  -1.726
   2.564  -1.837  -1.726
   2.373  -1.510  -1.966
  -1.175  -2.856  -1.966
  -0.939  -3.082  -1.966
  -0.671  -3.268  -1.966
  -0.376  -3.408  -1.966
  -0.062  -3.498  -1.966
   0.262  -3.538  -1.966
   0.589  -3.525  -1.966
   0.909  -3.459  -1.966
   1.214  -3.343  -1.966
   1.497  -3.180  -1.966
   1.750  -2.974  -1.966
   1.966  -2.729  -1.966
   2.141  -2.453  -1.966
   2.269  -2.153  -1.966
   2.347  -1.836  -1.966
   2.133  -1.510  -2.181
  -1.177  -2.452  -2.181
  -0.978  -2.716  -2.181
  -0.734  -2.938  -2.181
  -0.454  -3.112  -2.181
  -0.146  -3.231  -2.181
   0.179  -3.292  -2.181
   0.509  -3.292  -2.181
   0.834  -3.231  -2.181
   1.142  -3.112  -2.181
   1.422  -2.938  -2.181
   1.666  -2.716  -2.181
   1.865  -2.452  -2.181
   2.013  -2.156  -2.181
   2.103  -1.839  -2.181
   1.871  -1.510  -2.367
  -0.964  -2.297  -2.367
  -0.765  -2.560  -2.367
  -0.513  -2.774  -2.367
  -0.221  -2.928  -2.367
   0.097  -3.017  -2.367
   0.427  -3.035  -2.367
   0.752  -2.981  -2.367
   1.059  -2.859  -2.367
   1.333  -2.674  -2.367
   1.560  -2.434  -2.367
   1.730  -2.151  -2.367
   1.835  -1.838  -2.367
   1.589  -1.510  -2.523
  -0.734  -2.133  -2.523
  -0.537  -2.391  -2.523
  -0.279  -2.588  -2.523
   0.022  -2.713  -2.523
   0.344  -2.755  -2.523
   0.666  -2.713  -2.523
   0.967  -2.588  -2.523
   1.225  -2.391  -2.523
   1.422  -2.133  -2.523
   1.547  -1.832  -2.523
   1.292  -1.510  -2.646
  -0.382  -2.119  -2.646
  -0.130  -2.331  -2.646
   0.179  -2.444  -2.646
   0.509  -2.444  -2.646
   0.818  -2.331  -2.646
   1.070  -2.119  -2.646
   1.235  -1.834  -2.646
   0.025  -2.063  -2.735
   0.344  -2.149  -2.735
   0.663  -2.063  -2.735
   0.897  -1.829  -2.735
   0.183  -1.788  -2.789
   0.505  -1.788  -2.789
  -2.958   0.001   1.771
  -2.958  -0.321   1.771
  -2.889  -0.636   1.771
  -2.753  -0.928   1.771
  -2.559  -1.184   1.771
  -3.105   0.471   1.589
  -3.193   0.161   1.589
  -3.223  -0.160   1.589
  -3.193  -0.481   1.589
  -3.105  -0.791   1.589
  -2.961  -1.079   1.589
  -2.767  -1.336   1.589
  -2.529  -1.553   1.589
  -3.450  -0.001   1.380
  -3.450  -0.319   1.380
  -3.399  -0.634   1.380
  -3.298  -0.936   1.380
  -3.150  -1.218   1.380
  -2.959  -1.473   1.380
  -2.729  -1.694   1.380
  -2.467  -1.875   1.380
  -3.660  -0.320   1.146
  -3.614  -0.636   1.146
  -3.522  -0.942   1.146
  -3.386  -1.231   1.146
  -3.210  -1.498   1.146
  -2.996  -1.736   1.146
  -2.751  -1.940   1.146
  -2.478  -2.107   1.146
  -3.800  -0.632   0.890
  -3.717  -0.938   0.890
  -3.593  -1.229   0.890
  -3.432  -1.502   0.890
  -3.235  -1.750   0.890
  -3.008  -1.970   0.890
  -2.753  -2.158   0.890
  -2.475  -2.311   0.890
  -3.823  -1.089   0.615
  -3.688  -1.375   0.615
  -3.518  -1.643   0.615
  -3.316  -1.887   0.615
  -3.085  -2.104   0.615
  -2.829  -2.290   0.615
  -2.551  -2.443   0.615
  -3.817  -1.388   0.325
  -3.652  -1.661   0.325
  -3.455  -1.913   0.325
  -3.230  -2.138   0.325
  -2.978  -2.335   0.325
  -2.705  -2.500   0.325
  -2.414  -2.631   0.325
  -3.758  -1.660   0.023
  -3.568  -1.915   0.023
  -3.350  -2.146   0.023
  -3.107  -2.350   0.023
  -2.842  -2.524   0.023
  -2.558  -2.667   0.023
  -2.260  -2.775   0.023
  -3.728  -1.795  -0.286
  -3.527  -2.041  -0.286
  -3.299  -2.263  -0.286
  -3.048  -2.457  -0.286
  -2.775  -2.621  -0.286
  -2.486  -2.753  -0.286
  -2.184  -2.851  -0.286
  -3.666  -1.906  -0.600
  -3.457  -2.140  -0.600
  -3.223  -2.349  -0.600
  -2.967  -2.531  -0.600
  -2.692  -2.683  -0.600
  -2.402  -2.803  -0.600
  -2.100  -2.890  -0.600
  -3.527  -2.041  -0.913
  -3.299  -2.263  -0.913
  -3.048  -2.457  -0.913
  -2.775  -2.621  -0.913
  -2.486  -2.753  -0.913
  -2.184  -2.851  -0.913
  -3.350  -2.146  -1.223
  -3.107  -2.350  -1.223
  -2.842  -2.524  -1.223
  -2.558  -2.667  -1.223
  -2.260  -2.775  -1.223
  -1.951  -2.848  -1.223
  -3.230  -2.138  -1.525
  -2.978  -2.335  -1.525
  -2.705  -2.500  -1.525
  -2.414  -2.631  -1.525
  -2.109  -2.726  -1.525
  -1.796  -2.784  -1.525
  -2.829  -2.290  -1.815
  -2.551  -2.443  -1.815
  -2.257  -2.559  -1.815
  -1.950  -2.638  -1.815
  -1.635  -2.678  -1.815
  -2.753  -2.158  -2.090
  -2.475  -2.311  -2.090
  -2.179  -2.424  -2.090
  -1.871  -2.498  -2.090
  -1.556  -2.530  -2.090
  -2.478  -2.107  -2.346
  -2.184  -2.232  -2.346
  -1.875  -2.313  -2.346
  -1.557  -2.348  -2.346
  -1.238  -2.336  -2.346
  -2.179  -2.011  -2.580
  -1.873  -2.100  -2.580
  -1.557  -2.138  -2.580
  -1.238  -2.125  -2.580
  -0.926  -2.062  -2.580
  -1.638  -1.898  -2.789
  -1.316  -1.898  -2.789
  -0.999  -1.839  -2.789
  -0.699  -1.723  -2.789
  -1.078  -1.595  -2.971
  -0.779  -1.476  -2.971
  -3.176   0.856   1.549
  -3.497   0.856   1.416
  -3.451   0.508   1.416
  -3.792   1.034   1.248
  -3.792   0.678   1.248
  -3.715   0.329   1.248
  -4.052   1.211   1.047
  -4.085   0.856   1.047
  -4.052   0.501   1.047
  -3.954   0.158   1.047
  -3.795  -0.161   1.047
  -4.169   1.715   0.815
  -4.280   1.381   0.815
  -4.337   1.032   0.815
  -4.337   0.680   0.815
  -4.280   0.331   0.815
  -4.005  -0.316   0.815
  -4.416   1.722   0.556
  -4.518   1.383   0.556
  -4.632   1.717   0.272
  -4.600   2.202  -0.032
  -4.749   1.884  -0.032
  -4.743   2.216  -0.353
  -4.677   2.517  -0.687
  -4.644   2.667  -1.030
  -4.576   2.789  -1.377
  -4.777   2.505  -1.377
  -4.422   2.939  -1.724
  -4.644   2.667  -1.724
  -0.347   3.280  -2.067
  -3.957   3.280  -2.067
  -4.226   3.054  -2.067
  -4.467   2.799  -2.067
  -4.677   2.517  -2.067
  -0.792   3.447  -2.401
  -3.512   3.447  -2.401
  -3.814   3.264  -2.401
  -4.092   3.046  -2.401
  -4.342   2.796  -2.401
  -4.560   2.518  -2.401
  -2.852  -1.985  -2.401
  -2.505  -2.049  -2.401
  -1.289   3.512  -2.722
  -1.629   3.600  -2.722
  -1.977   3.643  -2.722
  -2.327   3.643  -2.722
  -2.675   3.600  -2.722
  -3.015   3.512  -2.722
  -3.341   3.383  -2.722
  -3.649   3.214  -2.722
  -3.932   3.008  -2.722
  -4.188   2.768  -2.722
  -4.412   2.498  -2.722
  -2.675  -1.888  -2.722
  -2.327  -1.931  -2.722
  -1.977  -1.931  -2.722
  -1.889   3.468  -3.026
  -2.240   3.479  -3.026
  -2.589   3.444  -3.026
  -2.930   3.363  -3.026
  -3.257   3.237  -3.026
  -3.564   3.068  -3.026
  -3.847   2.860  -3.026
  -4.099   2.617  -3.026
  -4.316   2.342  -3.026
  -2.930  -1.651  -3.026
  -2.589  -1.732  -3.026
  -2.240  -1.767  -3.026
  -1.889  -1.756  -3.026
  -1.544  -1.697  -3.026
  -1.209  -1.593  -3.026
  -0.891  -1.446  -3.026
  -2.592   3.239  -3.310
  -2.935   3.150  -3.310
  -3.260   3.011  -3.310
  -3.562   2.827  -3.310
  -3.834   2.601  -3.310
  -4.070   2.337  -3.310
  -4.266   2.042  -3.310
  -2.935  -1.438  -3.310
  -2.592  -1.527  -3.310
  -2.241  -1.566  -3.310
  -1.887  -1.553  -3.310
  -1.539  -1.489  -3.310
  -2.929   2.906  -3.569
  -3.248   2.754  -3.569
  -3.538   2.554  -3.569
  -3.793   2.310  -3.569
  -4.005   2.028  -3.569
  -4.169   1.715  -3.569
  -2.929  -1.194  -3.569
  -2.590  -1.292  -3.569
  -2.240  -1.334  -3.569
  -3.317   2.398  -3.801
  -3.580   2.158  -3.801
  -3.795   1.874  -3.801
  -3.954   1.554  -3.801
  -3.014  -0.874  -3.801
  -2.681  -1.003  -3.801
  -3.349   1.990  -4.002
  -3.565   1.706  -4.002
  -3.715   1.383  -4.002
  -3.792   1.034  -4.002
  -3.078  -0.509  -4.002
  -3.497   0.856  -4.170
  -3.451   0.508  -4.170
  -3.317   0.183  -4.170
  -4.355   1.947   0.548
  -4.482   2.094   0.293
  -4.541   2.387   0.024
  -4.540   2.667  -0.256
  -4.624   2.385  -0.256
  -4.538   2.806  -0.544
  -4.637   2.528  -0.544
  -4.359   3.183  -0.835
  -4.501   2.928  -0.835
  -4.248   3.319  -1.126
  -4.408   3.070  -1.126
  -4.100   3.429  -1.414
  -4.276   3.193  -1.414
  -3.785   3.637  -1.694
  -3.995   3.427  -1.694
  -4.178   3.194  -1.694
  -3.413   3.778  -1.963
  -3.651   3.605  -1.963
  -3.866   3.404  -1.963
  -2.810   3.903  -2.218
  -3.085   3.797  -2.218
  -3.343   3.656  -2.218
  -3.579   3.481  -2.218
  -2.232   3.831  -2.456
  -2.527   3.799  -2.456
  -2.814   3.724  -2.456
  -3.087   3.608  -2.456
  -0.025   2.979  -2.329
  -0.263   3.147  -2.329
   0.155   2.799  -2.620
  -0.068   2.992  -2.620
  -0.312   3.159  -2.620
  -0.573   3.296  -2.620