 $system timlim=999888777
         mwords=100 $end
 $contrl exetyp=run
         runtyp=energy scftyp=rhf
         icharg=-1 mult=1 units=angs coord=unique
         maxit=50 ispher=1 qmttol=1d-6 icut=12 itol=22 $end
 $scf    dirscf=.t. diis=.t. soscf=.f.
         fdiff=.f. conv=1d-6
         npreo(1)=0,-1,1,9999 $end
 $elpot  iepot=1 where=points $end
 $basis  gbasis=n311 ngauss=6
         ndfunc=1 npfunc=1 diffsp=.t. diffs=.t. $end
 $DATA
TS1a_hfd_irc200_all_revmov.pdb
C1
P     15.0    -0.04300   0.00100  -0.02000 
O      8.0    -0.12800   0.23500   1.51600 
O      8.0     0.90900   0.79100  -0.77500 
F      9.0     0.35400  -1.51500   0.00800 
O      8.0    -1.47800  -0.15900  -0.60100 
C      6.0    -2.15200   0.85600  -1.37700 
H      1.0    -2.15600   1.79600  -0.82900 
H      1.0    -1.64500   0.95000  -2.32900 
H      1.0    -3.15000   0.46800  -1.52900 
C      6.0     0.09800   1.51300   2.15000 
H      1.0    -0.13800   1.34700   3.19200 
H      1.0     1.14600   1.76400   2.04600 
H      1.0    -0.54300   2.26600   1.69900 
O      8.0    -1.75900   3.18700   0.48000 
H      1.0    -1.41800   3.99300   0.11300 
 $END
 $POINTS
ANGS 3104
  -2.347  -1.580   1.736
  -2.115  -1.873   1.736
   2.652  -0.737   1.736
   2.726  -0.371   1.736
  -2.210  -2.034   1.412
   2.837  -0.738   1.412
   2.907  -0.372   1.412
   3.072   0.001   1.070
   2.981  -0.744   1.070
   3.049  -0.374   1.070
   3.174   0.001   0.714
   3.088  -0.741   0.714
   3.153  -0.373   0.714
   3.151  -0.742   0.349
   3.215  -0.373   0.349
   3.174  -0.733  -0.020
  -0.327  -1.732  -2.814
   1.094  -1.337  -2.814
  -0.414  -1.382  -2.993
  -0.043  -1.431  -2.993
   0.328  -1.382  -2.993
   0.673  -1.239  -2.993
   0.969  -1.011  -2.993
   0.146  -1.072  -3.135
   0.502  -0.943  -3.135
   0.324  -0.635  -3.237
  -0.679  -1.149   3.887
  -0.369  -1.235   3.887
  -0.047  -1.253   3.887
   0.271  -1.200   3.887
   0.570  -1.081   3.887
  -1.418  -0.941   3.705
  -1.180  -1.158   3.705
  -0.906  -1.328   3.705
  -0.606  -1.444   3.705
  -0.289  -1.503   3.705
   0.033  -1.503   3.705
   0.350  -1.444   3.705
   0.650  -1.328   3.705
   0.924  -1.158   3.705
  -1.949  -0.541   3.496
  -1.801  -0.823   3.496
  -1.610  -1.078   3.496
  -1.380  -1.299   3.496
  -1.118  -1.480   3.496
  -0.830  -1.616   3.496
  -0.524  -1.705   3.496
  -0.208  -1.743   3.496
   0.111  -1.730   3.496
   0.423  -1.667   3.496
   0.721  -1.554   3.496
   0.997  -1.394   3.496
   1.244  -1.193   3.496
   1.455  -0.954   3.496
  -2.265  -0.241   3.262
  -2.173  -0.547   3.262
  -2.037  -0.836   3.262
  -1.861  -1.103   3.262
  -1.647  -1.341   3.262
  -1.402  -1.545   3.262
  -1.129  -1.712   3.262
  -0.835  -1.837   3.262
  -0.526  -1.918   3.262
  -0.208  -1.953   3.262
   0.111  -1.941   3.262
   0.426  -1.883   3.262
   0.728  -1.780   3.262
   1.012  -1.634   3.262
   1.272  -1.448   3.262
   1.502  -1.226   3.262
   1.698  -0.973   3.262
  -2.451  -0.237   3.006
  -2.368  -0.543   3.006
  -2.244  -0.834   3.006
  -2.083  -1.107   3.006
  -1.886  -1.355   3.006
  -1.659  -1.575   3.006
  -1.404  -1.763   3.006
  -1.126  -1.916   3.006
  -0.830  -2.029   3.006
  -0.522  -2.103   3.006
  -0.207  -2.135   3.006
   0.109  -2.124   3.006
   0.422  -2.071   3.006
   0.724  -1.977   3.006
   1.011  -1.844   3.006
   1.278  -1.674   3.006
   1.520  -1.469   3.006
   1.733  -1.234   3.006
   1.912  -0.973   3.006
  -2.631  -0.081   2.731
  -2.571  -0.392   2.731
  -2.474  -0.694   2.731
  -2.339  -0.980   2.731
  -2.169  -1.248   2.731
  -1.967  -1.492   2.731
  -1.736  -1.709   2.731
  -1.480  -1.895   2.731
  -1.202  -2.048   2.731
  -0.908  -2.164   2.731
  -0.601  -2.243   2.731
  -0.286  -2.283   2.731
   1.224  -1.895   2.731
   1.480  -1.709   2.731
   1.711  -1.492   2.731
   1.913  -1.248   2.731
   2.083  -0.980   2.731
   2.218  -0.694   2.731
  -2.771   0.235   2.441
  -2.752  -0.084   2.441
  -2.694  -0.397   2.441
  -2.599  -0.702   2.441
  -2.468  -0.993   2.441
  -2.303  -1.266   2.441
  -2.106  -1.518   2.441
  -1.881  -1.743   2.441
  -1.629  -1.940   2.441
  -1.356  -2.105   2.441
  -1.065  -2.236   2.441
   2.047  -1.266   2.441
   2.212  -0.993   2.441
   2.343  -0.702   2.441
  -2.858   0.235   2.139
  -2.839  -0.082   2.139
  -2.784  -0.395   2.139
  -2.693  -0.699   2.139
  -2.567  -0.990   2.139
  -2.409  -1.265   2.139
  -2.219  -1.520   2.139
  -2.001  -1.751   2.139
  -1.758  -1.955   2.139
  -1.493  -2.129   2.139
   2.311  -0.990   2.139
   2.437  -0.699   2.139
  -2.906   0.394   1.830
  -2.906   0.076   1.830
  -2.870  -0.239   1.830
  -2.691  -0.848   1.830
  -2.551  -1.133   1.830
   3.280   0.791   0.715
   3.196   0.165   0.715
   3.259   0.475   0.715
   3.432   0.791   0.440
   3.412   1.107   0.440
   3.352   1.418   0.440
   3.255   1.720   0.440
   3.255  -0.138   0.440
   3.352   0.164   0.440
   3.412   0.475   0.440
   3.552   0.791   0.150
   3.533   1.110   0.150
   3.475   1.423   0.150
   3.380   1.728   0.150
   3.249   2.019   0.150
   3.084   2.292   0.150
   2.887   2.544   0.150
   2.662   2.769   0.150
   3.249  -0.437   0.150
   3.380  -0.146   0.150
   3.475   0.159   0.150
   3.533   0.472   0.150
   3.639   0.791  -0.152
   3.620   1.108  -0.152
   3.565   1.421  -0.152
   3.474   1.725  -0.152
   3.348   2.016  -0.152
   3.190   2.291  -0.152
   3.000   2.546  -0.152
   2.782   2.777  -0.152
   2.539   2.981  -0.152
   2.274   3.155  -0.152
   1.990   3.298  -0.152
   1.692   3.406  -0.152
   1.383   3.479  -0.152
   3.190  -0.709  -0.152
   3.348  -0.434  -0.152
   3.474  -0.143  -0.152
   3.565   0.161  -0.152
   3.620   0.474  -0.152
   3.691   0.791  -0.461
   3.673   1.108  -0.461
   3.619   1.421  -0.461
   3.530   1.726  -0.461
   3.406   2.019  -0.461
   3.250   2.295  -0.461
   3.063   2.552  -0.461
   2.848   2.786  -0.461
   2.608   2.994  -0.461
   2.346   3.174  -0.461
   2.065   3.322  -0.461
   1.769   3.437  -0.461
   1.462   3.518  -0.461
   1.147   3.563  -0.461
   3.250  -0.713  -0.461
   3.406  -0.437  -0.461
   3.530  -0.144  -0.461
   3.619   0.161  -0.461
   3.673   0.474  -0.461
   3.709   0.791  -0.775
   3.691   1.105  -0.775
   3.639   1.414  -0.775
   3.552   1.716  -0.775
   3.432   2.006  -0.775
   3.280   2.281  -0.775
   3.098   2.537  -0.775
   2.889   2.771  -0.775
   2.655   2.980  -0.775
   2.399   3.162  -0.775
   2.124   3.314  -0.775
   1.834   3.434  -0.775
   1.532   3.521  -0.775
   1.223   3.573  -0.775
   3.098  -0.955  -0.775
   3.280  -0.699  -0.775
   3.432  -0.424  -0.775
   3.552  -0.134  -0.775
   3.639   0.168  -0.775
   3.691   0.477  -0.775
   3.691   0.791  -1.088
   3.673   1.108  -1.088
   3.619   1.421  -1.088
   3.530   1.726  -1.088
   3.406   2.019  -1.088
   3.250   2.295  -1.088
   3.063   2.552  -1.088
   2.848   2.786  -1.088
   2.608   2.994  -1.088
   2.346   3.174  -1.088
   2.065   3.322  -1.088
   1.769   3.437  -1.088
   1.462   3.518  -1.088
   1.147   3.563  -1.088
   3.063  -0.970  -1.088
   3.250  -0.713  -1.088
   3.406  -0.437  -1.088
   3.530  -0.144  -1.088
   3.619   0.161  -1.088
   3.673   0.474  -1.088
   3.639   0.791  -1.398
   3.620   1.108  -1.398
   3.565   1.421  -1.398
   3.474   1.725  -1.398
   3.348   2.016  -1.398
   3.190   2.291  -1.398
   3.000   2.546  -1.398
   2.782   2.777  -1.398
   2.539   2.981  -1.398
   2.274   3.155  -1.398
   1.990   3.298  -1.398
   1.692   3.406  -1.398
   1.383   3.479  -1.398
   1.068   3.516  -1.398
   0.750   3.516  -1.398
   3.000  -0.964  -1.398
   3.190  -0.709  -1.398
   3.348  -0.434  -1.398
   3.474  -0.143  -1.398
   3.565   0.161  -1.398
   3.620   0.474  -1.398
   3.552   0.791  -1.700
   3.533   1.110  -1.700
   3.475   1.423  -1.700
   3.380   1.728  -1.700
   3.249   2.019  -1.700
   3.084   2.292  -1.700
   2.887   2.544  -1.700
   2.662   2.769  -1.700
   2.410   2.966  -1.700
   2.137   3.131  -1.700
   1.846   3.262  -1.700
   1.541   3.357  -1.700
   1.228   3.415  -1.700
   0.909   3.434  -1.700
   0.590   3.415  -1.700
   2.662  -1.187  -1.700
   2.887  -0.962  -1.700
   3.084  -0.710  -1.700
   3.249  -0.437  -1.700
   3.380  -0.146  -1.700
   3.475   0.159  -1.700
   3.533   0.472  -1.700
   3.432   0.791  -1.990
   3.412   1.107  -1.990
   3.352   1.418  -1.990
   3.255   1.720  -1.990
   3.120   2.006  -1.990
   2.950   2.274  -1.990
   2.748   2.518  -1.990
   2.517   2.735  -1.990
   2.261   2.921  -1.990
   1.983   3.074  -1.990
   1.689   3.190  -1.990
   1.382   3.269  -1.990
   1.067   3.309  -1.990
   0.751   3.309  -1.990
   0.436   3.269  -1.990
   0.129   3.190  -1.990
   2.517  -1.153  -1.990
   2.748  -0.936  -1.990
   2.950  -0.692  -1.990
   3.120  -0.424  -1.990
   3.255  -0.138  -1.990
   3.352   0.164  -1.990
   3.412   0.475  -1.990
   3.280   0.791  -2.265
   3.259   1.107  -2.265
   3.196   1.417  -2.265
   3.092   1.717  -2.265
   2.949   1.999  -2.265
   2.770   2.260  -2.265
   2.557   2.495  -2.265
   2.315   2.700  -2.265
   2.048   2.870  -2.265
   1.761   3.003  -2.265
   1.459   3.097  -2.265
   1.146   3.150  -2.265
   0.830   3.161  -2.265
   0.515   3.129  -2.265
   0.207   3.055  -2.265
   2.315  -1.118  -2.265
   2.557  -0.913  -2.265
   2.770  -0.678  -2.265
   2.949  -0.417  -2.265
   3.092  -0.135  -2.265
   3.196   0.165  -2.265
   3.259   0.475  -2.265
   3.098   0.791  -2.521
   3.075   1.110  -2.521
   3.005   1.422  -2.521
   2.891   1.720  -2.521
   2.735   1.999  -2.521
   2.539   2.252  -2.521
   2.309   2.474  -2.521
   2.049   2.660  -2.521
   1.765   2.806  -2.521
   1.463   2.909  -2.521
   1.148   2.967  -2.521
   0.829   2.979  -2.521
   0.511   2.944  -2.521
   0.202   2.863  -2.521
   1.765  -1.224  -2.521
   2.049  -1.078  -2.521
   2.309  -0.892  -2.521
   2.539  -0.670  -2.521
   2.735  -0.417  -2.521
   2.891  -0.138  -2.521
   3.005   0.160  -2.521
   3.075   0.472  -2.521
   2.889   0.791  -2.755
   2.863   1.109  -2.755
   2.787   1.418  -2.755
   2.662   1.711  -2.755
   2.492   1.980  -2.755
   2.281   2.219  -2.755
   2.034   2.420  -2.755
   1.758   2.580  -2.755
   1.460   2.693  -2.755
   1.148   2.756  -2.755
   0.829   2.769  -2.755
   0.513   2.731  -2.755
   1.460  -1.111  -2.755
   1.758  -0.998  -2.755
   2.034  -0.838  -2.755
   2.281  -0.637  -2.755
   2.492  -0.398  -2.755
   2.662  -0.129  -2.755
   2.787   0.164  -2.755
   2.863   0.473  -2.755
   2.655   0.791  -2.964
   2.625   1.112  -2.964
   2.537   1.422  -2.964
   2.393   1.710  -2.964
   2.199   1.967  -2.964
   1.961   2.184  -2.964
   1.687   2.354  -2.964
   1.387   2.470  -2.964
   1.070   2.529  -2.964
   0.748   2.529  -2.964
   0.431   2.470  -2.964
   1.387  -0.888  -2.964
   1.687  -0.772  -2.964
   1.961  -0.602  -2.964
   2.199  -0.385  -2.964
   2.393  -0.128  -2.964
   2.537   0.160  -2.964
   2.625   0.470  -2.964
   2.399   0.791  -3.146
   2.364   1.111  -3.146
   2.261   1.417  -3.146
   2.095   1.693  -3.146
   1.873   1.926  -3.146
   1.607   2.107  -3.146
   1.308   2.226  -3.146
   0.990   2.279  -3.146
   0.668   2.261  -3.146
   0.990  -0.697  -3.146
   1.308  -0.644  -3.146
   1.607  -0.525  -3.146
   1.873  -0.344  -3.146
   2.095  -0.111  -3.146
   2.261   0.165  -3.146
   2.364   0.471  -3.146
   2.124   0.791  -3.298
   2.082   1.105  -3.298
   1.961   1.398  -3.298
   1.768   1.650  -3.298
   1.516   1.843  -3.298
   1.223   1.964  -3.298
   0.909   2.006  -3.298
   0.595   1.964  -3.298
   0.595  -0.382  -3.298
   0.909  -0.424  -3.298
   1.223  -0.382  -3.298
   1.516  -0.261  -3.298
   1.768  -0.068  -3.298
   1.961   0.184  -3.298
   2.082   0.477  -3.298
   1.834   0.791  -3.418
   1.778   1.107  -3.418
   1.617   1.385  -3.418
   1.371   1.592  -3.418
   1.070   1.702  -3.418
   0.748   1.702  -3.418
   0.748  -0.120  -3.418
   1.070  -0.120  -3.418
   1.371  -0.010  -3.418
   1.617   0.197  -3.418
   1.778   0.475  -3.418
   1.532   0.791  -3.505
   1.449   1.103  -3.505
   1.221   1.331  -3.505
   0.909   1.414  -3.505
   0.597   0.251  -3.505
   0.909   0.168  -3.505
   1.221   0.251  -3.505
   1.449   0.479  -3.505
   1.223   0.791  -3.557
   1.066   1.063  -3.557
   0.752   1.063  -3.557
   0.752   0.519  -3.557
   1.066   0.519  -3.557
   0.909   0.791  -3.575
  -0.120  -2.336   2.717
   0.189  -2.448   2.717
   0.519  -2.448   2.717
   0.828  -2.336   2.717
   1.080  -2.124   2.717
  -0.527  -2.396   2.594
  -0.269  -2.593   2.594
   0.032  -2.718   2.594
   0.354  -2.760   2.594
   0.676  -2.718   2.594
   0.977  -2.593   2.594
   1.235  -2.396   2.594
   1.432  -2.138   2.594
   1.557  -1.837   2.594
   1.881  -1.515   2.438
  -0.954  -2.302   2.438
  -0.755  -2.565   2.438
  -0.503  -2.779   2.438
  -0.211  -2.933   2.438
   0.107  -3.022   2.438
   0.437  -3.040   2.438
   0.762  -2.986   2.438
   1.069  -2.864   2.438
   1.343  -2.679   2.438
   1.570  -2.439   2.438
   1.740  -2.156   2.438
   1.845  -1.843   2.438
   2.143  -1.515   2.252
  -1.167  -2.457   2.252
  -0.968  -2.721   2.252
  -0.724  -2.943   2.252
  -0.444  -3.117   2.252
  -0.136  -3.236   2.252
   0.189  -3.297   2.252
   0.519  -3.297   2.252
   0.844  -3.236   2.252
   1.152  -3.117   2.252
   1.432  -2.943   2.252
   1.676  -2.721   2.252
   1.875  -2.457   2.252
   2.023  -2.161   2.252
   2.113  -1.844   2.252
   2.383  -1.515   2.037
   2.357  -1.189   2.037
  -1.513  -2.310   2.037
  -1.361  -2.600   2.037
  -1.165  -2.861   2.037
  -0.929  -3.087   2.037
  -0.661  -3.273   2.037
  -0.366  -3.413   2.037
  -0.052  -3.503   2.037
   0.272  -3.543   2.037
   0.599  -3.530   2.037
   0.919  -3.464   2.037
   1.224  -3.348   2.037
   1.507  -3.185   2.037
   1.760  -2.979   2.037
   1.976  -2.734   2.037
   2.151  -2.458   2.037
   2.279  -2.158   2.037
   2.357  -1.841   2.037
   2.598  -1.515   1.797
   2.574  -1.188   1.797
  -1.742  -2.317   1.797
  -1.603  -2.613   1.797
  -1.422  -2.886   1.797
  -1.203  -3.130   1.797
  -0.952  -3.340   1.797
  -0.672  -3.511   1.797
  -0.371  -3.639   1.797
  -0.054  -3.722   1.797
   0.272  -3.757   1.797
   0.599  -3.745   1.797
   0.922  -3.686   1.797
   1.232  -3.580   1.797
   1.523  -3.430   1.797
   1.789  -3.240   1.797
   2.025  -3.012   1.797
   2.225  -2.753   1.797
   2.386  -2.467   1.797
   2.503  -2.161   1.797
   2.574  -1.842   1.797
   2.784  -1.515   1.535
   2.762  -1.191   1.535
  -1.942  -2.312   1.535
  -1.815  -2.611   1.535
  -1.649  -2.890   1.535
  -1.448  -3.145   1.535
  -1.215  -3.371   1.535
  -0.954  -3.563   1.535
  -0.669  -3.719   1.535
  -0.366  -3.836   1.535
  -0.050  -3.911   1.535
   0.273  -3.944   1.535
   0.597  -3.933   1.535
   0.917  -3.879   1.535
   1.227  -3.783   1.535
   1.522  -3.646   1.535
   1.795  -3.471   1.535
   2.043  -3.262   1.535
   2.261  -3.021   1.535
   2.445  -2.753   1.535
   2.591  -2.464   1.535
   2.698  -2.157   1.535
   2.762  -1.839   1.535
   2.940  -1.515   1.253
   2.919  -1.191   1.253
  -2.050  -2.467   1.253
  -1.912  -2.761   1.253
  -1.738  -3.035   1.253
  -1.531  -3.285   1.253
  -1.294  -3.507   1.253
  -1.032  -3.698   1.253
  -0.747  -3.855   1.253
  -0.445  -3.974   1.253
  -0.131  -4.055   1.253
   0.192  -4.096   1.253
   0.516  -4.096   1.253
   0.839  -4.055   1.253
   1.153  -3.974   1.253
   1.455  -3.855   1.253
   1.740  -3.698   1.253
   2.002  -3.507   1.253
   2.239  -3.285   1.253
   2.446  -3.035   1.253
   2.620  -2.761   1.253
   2.758  -2.467   1.253
   2.859  -2.158   1.253
   2.919  -1.839   1.253
   3.063  -1.515   0.956
   3.043  -1.188   0.956
  -2.179  -2.476   0.956
  -2.045  -2.774   0.956
  -1.875  -3.054   0.956
  -1.674  -3.311   0.956
  -1.442  -3.543   0.956
  -1.185  -3.744   0.956
  -0.905  -3.914   0.956
  -0.607  -4.048   0.956
  -0.294  -4.145   0.956
   0.027  -4.204   0.956
   0.354  -4.224   0.956
   0.681  -4.204   0.956
   1.002  -4.145   0.956
   1.315  -4.048   0.956
   1.613  -3.914   0.956
   1.893  -3.744   0.956
   2.150  -3.543   0.956
   2.382  -3.311   0.956
   2.583  -3.054   0.956
   2.753  -2.774   0.956
   2.887  -2.476   0.956
   2.984  -2.163   0.956
   3.043  -1.842   0.956
   3.152  -1.515   0.647
   3.133  -1.190   0.647
   3.077  -0.870   0.647
  -2.146  -2.771   0.647
  -1.984  -3.053   0.647
  -1.789  -3.314   0.647
  -1.566  -3.550   0.647
  -1.317  -3.759   0.647
  -1.045  -3.938   0.647
  -0.754  -4.084   0.647
  -0.448  -4.195   0.647
  -0.132  -4.271   0.647
   0.191  -4.308   0.647
   0.517  -4.308   0.647
   0.840  -4.271   0.647
   1.156  -4.195   0.647
   1.462  -4.084   0.647
   1.753  -3.938   0.647
   2.025  -3.759   0.647
   2.274  -3.550   0.647
   2.497  -3.314   0.647
   2.692  -3.053   0.647
   2.854  -2.771   0.647
   2.983  -2.472   0.647
   3.077  -2.160   0.647
   3.133  -1.840   0.647
   3.206  -1.515   0.329
   3.187  -1.190   0.329
   3.132  -0.869   0.329
  -2.129  -2.917   0.329
  -1.953  -3.191   0.329
  -1.747  -3.443   0.329
  -1.514  -3.670   0.329
  -1.256  -3.869   0.329
  -0.977  -4.037   0.329
  -0.681  -4.173   0.329
  -0.371  -4.273   0.329
  -0.052  -4.338   0.329
   0.273  -4.366   0.329
   0.598  -4.356   0.329
   0.920  -4.310   0.329
   1.235  -4.227   0.329
   1.539  -4.109   0.329
   1.827  -3.957   0.329
   2.096  -3.773   0.329
   2.342  -3.560   0.329
   2.562  -3.320   0.329
   2.753  -3.057   0.329
   2.913  -2.773   0.329
   3.040  -2.473   0.329
   3.132  -2.161   0.329
   3.187  -1.840   0.329
   3.224  -1.515   0.008
   3.206  -1.194   0.008
   3.152  -0.876   0.008
  -2.076  -3.042   0.008
  -1.890  -3.304   0.008
  -1.675  -3.544   0.008
  -1.435  -3.759   0.008
  -1.173  -3.945   0.008
  -0.891  -4.101   0.008
  -0.594  -4.224   0.008
  -0.285  -4.313   0.008
   0.033  -4.367   0.008
   0.354  -4.385   0.008
   0.675  -4.367   0.008
   0.993  -4.313   0.008
   1.302  -4.224   0.008
   1.599  -4.101   0.008
   1.881  -3.945   0.008
   2.143  -3.759   0.008
   2.383  -3.544   0.008
   2.598  -3.304   0.008
   2.784  -3.042   0.008
   2.940  -2.760   0.008
   3.063  -2.463   0.008
   3.152  -2.154   0.008
   3.206  -1.836   0.008
   3.206  -1.515  -0.313
   3.187  -1.190  -0.313
   3.132  -0.869  -0.313
  -2.129  -2.917  -0.313
  -1.953  -3.191  -0.313
  -1.747  -3.443  -0.313
  -1.514  -3.670  -0.313
  -1.256  -3.869  -0.313
  -0.977  -4.037  -0.313
  -0.681  -4.173  -0.313
  -0.371  -4.273  -0.313
  -0.052  -4.338  -0.313
   0.273  -4.366  -0.313
   0.598  -4.356  -0.313
   0.920  -4.310  -0.313
   1.235  -4.227  -0.313
   1.539  -4.109  -0.313
   1.827  -3.957  -0.313
   2.096  -3.773  -0.313
   2.342  -3.560  -0.313
   2.562  -3.320  -0.313
   2.753  -3.057  -0.313
   2.913  -2.773  -0.313
   3.040  -2.473  -0.313
   3.132  -2.161  -0.313
   3.187  -1.840  -0.313
   3.152  -1.515  -0.631
   3.133  -1.190  -0.631
  -1.984  -3.053  -0.631
  -1.789  -3.314  -0.631
  -1.566  -3.550  -0.631
  -1.317  -3.759  -0.631
  -1.045  -3.938  -0.631
  -0.754  -4.084  -0.631
  -0.448  -4.195  -0.631
  -0.132  -4.271  -0.631
   0.191  -4.308  -0.631
   0.517  -4.308  -0.631
   0.840  -4.271  -0.631
   1.156  -4.195  -0.631
   1.462  -4.084  -0.631
   1.753  -3.938  -0.631
   2.025  -3.759  -0.631
   2.274  -3.550  -0.631
   2.497  -3.314  -0.631
   2.692  -3.053  -0.631
   2.854  -2.771  -0.631
   2.983  -2.472  -0.631
   3.077  -2.160  -0.631
   3.133  -1.840  -0.631
   3.063  -1.515  -0.940
   3.043  -1.188  -0.940
  -1.875  -3.054  -0.940
  -1.674  -3.311  -0.940
  -1.442  -3.543  -0.940
  -1.185  -3.744  -0.940
  -0.905  -3.914  -0.940
  -0.607  -4.048  -0.940
  -0.294  -4.145  -0.940
   0.027  -4.204  -0.940
   0.354  -4.224  -0.940
   0.681  -4.204  -0.940
   1.002  -4.145  -0.940
   1.315  -4.048  -0.940
   1.613  -3.914  -0.940
   1.893  -3.744  -0.940
   2.150  -3.543  -0.940
   2.382  -3.311  -0.940
   2.583  -3.054  -0.940
   2.753  -2.774  -0.940
   2.887  -2.476  -0.940
   2.984  -2.163  -0.940
   3.043  -1.842  -0.940
   2.940  -1.515  -1.237
   2.919  -1.191  -1.237
  -1.738  -3.035  -1.237
  -1.531  -3.285  -1.237
  -1.294  -3.507  -1.237
  -1.032  -3.698  -1.237
  -0.747  -3.855  -1.237
  -0.445  -3.974  -1.237
  -0.131  -4.055  -1.237
   0.192  -4.096  -1.237
   0.516  -4.096  -1.237
   0.839  -4.055  -1.237
   1.153  -3.974  -1.237
   1.455  -3.855  -1.237
   1.740  -3.698  -1.237
   2.002  -3.507  -1.237
   2.239  -3.285  -1.237
   2.446  -3.035  -1.237
   2.620  -2.761  -1.237
   2.758  -2.467  -1.237
   2.859  -2.158  -1.237
   2.919  -1.839  -1.237
   2.784  -1.515  -1.519
   2.762  -1.191  -1.519
  -1.649  -2.890  -1.519
  -1.448  -3.145  -1.519
  -1.215  -3.371  -1.519
  -0.954  -3.563  -1.519
  -0.669  -3.719  -1.519
  -0.366  -3.836  -1.519
  -0.050  -3.911  -1.519
   0.273  -3.944  -1.519
   0.597  -3.933  -1.519
   0.917  -3.879  -1.519
   1.227  -3.783  -1.519
   1.522  -3.646  -1.519
   1.795  -3.471  -1.519
   2.043  -3.262  -1.519
   2.261  -3.021  -1.519
   2.445  -2.753  -1.519
   2.591  -2.464  -1.519
   2.698  -2.157  -1.519
   2.762  -1.839  -1.519
   2.598  -1.515  -1.781
  -1.422  -2.886  -1.781
  -1.203  -3.130  -1.781
  -0.952  -3.340  -1.781
  -0.672  -3.511  -1.781
  -0.371  -3.639  -1.781
  -0.054  -3.722  -1.781
   0.272  -3.757  -1.781
   0.599  -3.745  -1.781
   0.922  -3.686  -1.781
   1.232  -3.580  -1.781
   1.523  -3.430  -1.781
   1.789  -3.240  -1.781
   2.025  -3.012  -1.781
   2.225  -2.753  -1.781
   2.386  -2.467  -1.781
   2.503  -2.161  -1.781
   2.574  -1.842  -1.781
   2.383  -1.515  -2.021
  -1.361  -2.600  -2.021
  -1.165  -2.861  -2.021
  -0.929  -3.087  -2.021
  -0.661  -3.273  -2.021
  -0.366  -3.413  -2.021
  -0.052  -3.503  -2.021
   0.272  -3.543  -2.021
   0.599  -3.530  -2.021
   0.919  -3.464  -2.021
   1.224  -3.348  -2.021
   1.507  -3.185  -2.021
   1.760  -2.979  -2.021
   1.976  -2.734  -2.021
   2.151  -2.458  -2.021
   2.279  -2.158  -2.021
   2.357  -1.841  -2.021
   2.143  -1.515  -2.236
  -1.167  -2.457  -2.236
  -0.968  -2.721  -2.236
  -0.724  -2.943  -2.236
  -0.444  -3.117  -2.236
  -0.136  -3.236  -2.236
   0.189  -3.297  -2.236
   0.519  -3.297  -2.236
   0.844  -3.236  -2.236
   1.152  -3.117  -2.236
   1.432  -2.943  -2.236
   1.676  -2.721  -2.236
   1.875  -2.457  -2.236
   2.023  -2.161  -2.236
   2.113  -1.844  -2.236
   1.881  -1.515  -2.422
  -0.954  -2.302  -2.422
  -0.755  -2.565  -2.422
  -0.503  -2.779  -2.422
  -0.211  -2.933  -2.422
   0.107  -3.022  -2.422
   0.437  -3.040  -2.422
   0.762  -2.986  -2.422
   1.069  -2.864  -2.422
   1.343  -2.679  -2.422
   1.570  -2.439  -2.422
   1.740  -2.156  -2.422
   1.845  -1.843  -2.422
   1.599  -1.515  -2.578
  -0.724  -2.138  -2.578
  -0.527  -2.396  -2.578
  -0.269  -2.593  -2.578
   0.032  -2.718  -2.578
   0.354  -2.760  -2.578
   0.676  -2.718  -2.578
   0.977  -2.593  -2.578
   1.235  -2.396  -2.578
   1.432  -2.138  -2.578
   1.557  -1.837  -2.578
   1.302  -1.515  -2.701
  -0.372  -2.124  -2.701
  -0.120  -2.336  -2.701
   0.189  -2.449  -2.701
   0.519  -2.449  -2.701
   0.828  -2.336  -2.701
   1.080  -2.124  -2.701
   1.245  -1.839  -2.701
   0.993  -1.515  -2.790
  -0.199  -1.834  -2.790
   0.035  -2.068  -2.790
   0.354  -2.154  -2.790
   0.673  -2.068  -2.790
   0.907  -1.834  -2.790
   0.193  -1.793  -2.844
   0.515  -1.793  -2.844
  -2.959   0.002   1.770
  -2.959  -0.320   1.770
  -2.890  -0.635   1.770
  -2.754  -0.927   1.770
  -2.560  -1.183   1.770
  -3.106   0.472   1.588
  -3.194   0.162   1.588
  -3.224  -0.159   1.588
  -3.194  -0.480   1.588
  -3.106  -0.790   1.588
  -2.962  -1.078   1.588
  -2.768  -1.335   1.588
  -2.530  -1.552   1.588
  -3.451   0.000   1.379
  -3.451  -0.318   1.379
  -3.400  -0.633   1.379
  -3.299  -0.935   1.379
  -3.151  -1.217   1.379
  -2.960  -1.472   1.379
  -2.730  -1.693   1.379
  -2.468  -1.874   1.379
  -3.661  -0.319   1.145
  -3.615  -0.635   1.145
  -3.523  -0.941   1.145
  -3.387  -1.230   1.145
  -3.211  -1.497   1.145
  -2.997  -1.735   1.145
  -2.752  -1.939   1.145
  -2.479  -2.106   1.145
  -2.185  -2.231   1.145
  -3.801  -0.631   0.889
  -3.718  -0.937   0.889
  -3.594  -1.228   0.889
  -3.433  -1.501   0.889
  -3.236  -1.749   0.889
  -3.009  -1.969   0.889
  -2.754  -2.157   0.889
  -2.476  -2.310   0.889
  -3.921  -0.786   0.614
  -3.824  -1.088   0.614
  -3.689  -1.374   0.614
  -3.519  -1.642   0.614
  -3.317  -1.886   0.614
  -3.086  -2.103   0.614
  -2.830  -2.289   0.614
  -2.552  -2.442   0.614
  -2.258  -2.558   0.614
  -3.818  -1.387   0.324
  -3.653  -1.660   0.324
  -3.456  -1.912   0.324
  -3.231  -2.137   0.324
  -2.979  -2.334   0.324
  -2.706  -2.499   0.324
  -2.415  -2.630   0.324
  -3.759  -1.659   0.022
  -3.569  -1.914   0.022
  -3.351  -2.145   0.022
  -3.108  -2.349   0.022
  -2.843  -2.523   0.022
  -2.559  -2.666   0.022
  -2.261  -2.774   0.022
  -3.729  -1.794  -0.287
  -3.528  -2.040  -0.287
  -3.300  -2.262  -0.287
  -3.049  -2.456  -0.287
  -2.776  -2.620  -0.287
  -2.487  -2.752  -0.287
  -2.185  -2.850  -0.287
  -3.458  -2.139  -0.601
  -3.224  -2.348  -0.601
  -2.968  -2.530  -0.601
  -2.693  -2.682  -0.601
  -2.403  -2.802  -0.601
  -2.101  -2.889  -0.601
  -3.528  -2.040  -0.914
  -3.300  -2.262  -0.914
  -3.049  -2.456  -0.914
  -2.776  -2.620  -0.914
  -2.487  -2.752  -0.914
  -2.185  -2.850  -0.914
  -3.351  -2.145  -1.224
  -3.108  -2.349  -1.224
  -2.843  -2.523  -1.224
  -2.559  -2.666  -1.224
  -2.261  -2.774  -1.224
  -1.952  -2.847  -1.224
  -3.231  -2.137  -1.526
  -2.979  -2.334  -1.526
  -2.706  -2.499  -1.526
  -2.415  -2.630  -1.526
  -2.110  -2.725  -1.526
  -1.797  -2.783  -1.526
  -2.830  -2.289  -1.816
  -2.552  -2.442  -1.816
  -2.258  -2.558  -1.816
  -1.951  -2.637  -1.816
  -1.636  -2.677  -1.816
  -2.754  -2.157  -2.091
  -2.476  -2.310  -2.091
  -2.180  -2.423  -2.091
  -1.872  -2.497  -2.091
  -1.557  -2.529  -2.091
  -2.479  -2.106  -2.347
  -2.185  -2.231  -2.347
  -1.876  -2.312  -2.347
  -1.558  -2.347  -2.347
  -1.239  -2.335  -2.347
  -2.180  -2.010  -2.581
  -1.874  -2.099  -2.581
  -1.558  -2.137  -2.581
  -1.239  -2.124  -2.581
  -0.927  -2.061  -2.581
  -1.639  -1.897  -2.790
  -1.317  -1.897  -2.790
  -1.000  -1.838  -2.790
  -0.700  -1.722  -2.790
  -1.079  -1.594  -2.972
  -0.780  -1.475  -2.972
  -3.176   0.856   1.549
  -3.497   0.856   1.416
  -3.451   0.508   1.416
  -3.792   1.034   1.248
  -3.792   0.678   1.248
  -3.715   0.329   1.248
  -4.052   1.211   1.047
  -4.085   0.856   1.047
  -4.052   0.501   1.047
  -3.954   0.158   1.047
  -3.795  -0.161   1.047
  -4.169   1.715   0.815
  -4.280   1.381   0.815
  -4.337   1.032   0.815
  -4.337   0.680   0.815
  -4.280   0.331   0.815
  -4.005  -0.316   0.815
  -4.416   1.722   0.556
  -4.518   1.383   0.556
  -4.632   1.717   0.272
  -4.600   2.202  -0.032
  -4.749   1.884  -0.032
  -4.743   2.216  -0.353
  -4.677   2.517  -0.687
  -4.644   2.667  -1.030
  -4.576   2.789  -1.377
  -4.777   2.505  -1.377
  -4.169   3.184  -1.724
  -4.422   2.939  -1.724
  -4.644   2.667  -1.724
  -3.957   3.280  -2.067
  -4.226   3.054  -2.067
  -4.467   2.799  -2.067
  -4.677   2.517  -2.067
  -0.792   3.447  -2.401
  -3.190   3.592  -2.401
  -3.512   3.447  -2.401
  -3.814   3.264  -2.401
  -4.092   3.046  -2.401
  -4.342   2.796  -2.401
  -4.560   2.518  -2.401
  -2.852  -1.985  -2.401
  -2.505  -2.049  -2.401
  -1.289   3.512  -2.722
  -1.629   3.600  -2.722
  -1.977   3.643  -2.722
  -2.327   3.643  -2.722
  -2.675   3.600  -2.722
  -3.015   3.512  -2.722
  -3.341   3.383  -2.722
  -3.649   3.214  -2.722
  -3.932   3.008  -2.722
  -4.188   2.768  -2.722
  -4.412   2.498  -2.722
  -2.675  -1.888  -2.722
  -2.327  -1.931  -2.722
  -1.977  -1.931  -2.722
  -1.889   3.468  -3.026
  -2.240   3.479  -3.026
  -2.589   3.444  -3.026
  -2.930   3.363  -3.026
  -3.257   3.237  -3.026
  -3.564   3.068  -3.026
  -3.847   2.860  -3.026
  -4.099   2.617  -3.026
  -4.316   2.342  -3.026
  -2.930  -1.651  -3.026
  -2.589  -1.732  -3.026
  -2.240  -1.767  -3.026
  -1.889  -1.756  -3.026
  -1.544  -1.697  -3.026
  -1.209  -1.593  -3.026
  -0.891  -1.446  -3.026
  -2.592   3.239  -3.310
  -2.935   3.150  -3.310
  -3.260   3.011  -3.310
  -3.562   2.827  -3.310
  -3.834   2.601  -3.310
  -4.070   2.337  -3.310
  -4.266   2.042  -3.310
  -2.935  -1.438  -3.310
  -2.592  -1.527  -3.310
  -2.241  -1.566  -3.310
  -1.887  -1.553  -3.310
  -1.539  -1.489  -3.310
  -2.929   2.906  -3.569
  -3.248   2.754  -3.569
  -3.538   2.554  -3.569
  -3.793   2.310  -3.569
  -4.005   2.028  -3.569
  -2.929  -1.194  -3.569
  -2.590  -1.292  -3.569
  -2.240  -1.334  -3.569
  -3.317   2.398  -3.801
  -3.580   2.158  -3.801
  -3.795   1.874  -3.801
  -3.954   1.554  -3.801
  -3.014  -0.874  -3.801
  -2.681  -1.003  -3.801
  -3.349   1.990  -4.002
  -3.565   1.706  -4.002
  -3.715   1.383  -4.002
  -3.792   1.034  -4.002
  -3.078  -0.509  -4.002
  -3.497   0.856  -4.170
  -3.451   0.508  -4.170
  -3.317   0.183  -4.170
  -4.353   1.943   0.554
  -4.480   2.090   0.299
  -4.539   2.383   0.030
  -4.538   2.663  -0.250
  -4.622   2.381  -0.250
  -4.406   3.066  -0.538
  -4.536   2.802  -0.538
  -4.635   2.524  -0.538
  -4.357   3.179  -0.829
  -4.499   2.924  -0.829
  -4.059   3.543  -1.120
  -4.246   3.315  -1.120
  -4.406   3.066  -1.120
  -3.895   3.640  -1.408
  -4.098   3.425  -1.408
  -4.274   3.189  -1.408
  -3.550   3.816  -1.688
  -3.783   3.633  -1.688
  -3.993   3.423  -1.688
  -4.176   3.190  -1.688
  -3.153   3.916  -1.957
  -3.411   3.774  -1.957
  -3.649   3.601  -1.957
  -3.864   3.400  -1.957
  -2.808   3.899  -2.212
  -3.083   3.793  -2.212
  -3.341   3.652  -2.212
  -1.934   3.817  -2.450
  -2.230   3.827  -2.450
  -2.525   3.795  -2.450
  -2.812   3.720  -2.450
  -0.024   2.983  -2.329
  -0.262   3.151  -2.329
   0.156   2.803  -2.620
  -0.067   2.996  -2.620
  -0.311   3.163  -2.620
  -0.572   3.300  -2.620
  -0.847   3.407  -2.620
   0.297   2.579  -2.908
   0.094   2.794  -2.908
  -0.131   2.983  -2.908
  -0.378   3.145  -2.908
  -0.641   3.278  -2.908
  -0.918   3.378  -2.908
  -1.205   3.446  -2.908
  -1.498   3.481  -2.908
   0.375   2.344  -3.188
   0.192   2.577  -3.188