 $system timlim=999888777
         mwords=100 $end
 $contrl exetyp=run
         runtyp=energy scftyp=rhf
         icharg=-1 mult=1 units=angs coord=unique
         maxit=50 ispher=1 qmttol=1d-6 icut=12 itol=22 $end
 $scf    dirscf=.t. diis=.t. soscf=.f.
         fdiff=.f. conv=1d-6
         npreo(1)=0,-1,1,9999 $end
 $elpot  iepot=1 where=points $end
 $basis  gbasis=n311 ngauss=6
         ndfunc=1 npfunc=1 diffsp=.t. diffs=.t. $end
 $DATA
TS1a_hfd_irc200_all_revmov.pdb
C1
P     15.0    -0.04400  -0.00500  -0.01800 
O      8.0    -0.12700   0.16800   1.52600 
O      8.0     0.90600   0.81200  -0.74700 
F      9.0     0.36200  -1.52000  -0.04400 
O      8.0    -1.47900  -0.15800  -0.60200 
C      6.0    -2.15200   0.85600  -1.37700 
H      1.0    -2.16000   1.78900  -0.81900 
H      1.0    -1.63900   0.95900  -2.32500 
H      1.0    -3.14700   0.46400  -1.53900 
C      6.0     0.13200   1.40700   2.21800 
H      1.0    -0.10200   1.19700   3.25400 
H      1.0     1.18600   1.63900   2.12100 
H      1.0    -0.49500   2.19100   1.80200 
O      8.0    -1.68000   3.09700   0.54600 
H      1.0    -1.26900   3.86500   0.16800 
 $END
 $POINTS
ANGS 3106
  -2.348  -1.586   1.738
  -2.116  -1.879   1.738
  -1.848  -2.139   1.738
   2.651  -0.743   1.738
  -2.211  -2.040   1.414
   2.836  -0.744   1.414
   2.906  -0.378   1.414
   3.071  -0.005   1.072
   2.980  -0.750   1.072
   3.048  -0.380   1.072
   3.173  -0.005   0.716
   3.087  -0.747   0.716
   3.152  -0.379   0.716
   3.150  -0.748   0.351
   3.214  -0.379   0.351
   3.173  -0.739  -0.018
   1.354  -1.068  -2.812
  -0.415  -1.388  -2.991
  -0.044  -1.437  -2.991
   0.327  -1.388  -2.991
   0.672  -1.245  -2.991
   0.968  -1.017  -2.991
  -0.233  -1.078  -3.133
   0.145  -1.078  -3.133
   0.501  -0.949  -3.133
   0.791  -0.706  -3.133
   0.323  -0.641  -3.235
  -1.417  -1.008   3.715
  -1.179  -1.225   3.715
  -0.905  -1.395   3.715
  -0.605  -1.511   3.715
  -0.288  -1.570   3.715
   0.034  -1.570   3.715
   0.351  -1.511   3.715
   0.651  -1.395   3.715
   0.925  -1.225   3.715
  -1.800  -0.890   3.506
  -1.609  -1.145   3.506
  -1.379  -1.366   3.506
  -1.117  -1.547   3.506
  -0.829  -1.683   3.506
  -0.523  -1.772   3.506
  -0.207  -1.810   3.506
   0.112  -1.797   3.506
   0.424  -1.734   3.506
   0.722  -1.621   3.506
   0.998  -1.461   3.506
   1.245  -1.260   3.506
  -2.264  -0.308   3.272
  -2.172  -0.614   3.272
  -2.036  -0.903   3.272
  -1.860  -1.170   3.272
  -1.646  -1.408   3.272
  -1.401  -1.612   3.272
  -1.128  -1.779   3.272
  -0.834  -1.904   3.272
  -0.525  -1.985   3.272
  -0.207  -2.020   3.272
   0.112  -2.008   3.272
   0.427  -1.950   3.272
   0.729  -1.847   3.272
   1.013  -1.701   3.272
   1.273  -1.515   3.272
   1.503  -1.293   3.272
  -2.450  -0.304   3.016
  -2.367  -0.610   3.016
  -2.243  -0.901   3.016
  -2.082  -1.174   3.016
  -1.885  -1.422   3.016
  -1.658  -1.642   3.016
  -1.403  -1.830   3.016
  -1.125  -1.983   3.016
  -0.829  -2.096   3.016
  -0.521  -2.170   3.016
  -0.206  -2.202   3.016
   0.110  -2.191   3.016
   0.423  -2.138   3.016
   0.725  -2.044   3.016
   1.012  -1.911   3.016
   1.279  -1.741   3.016
   1.521  -1.536   3.016
   1.734  -1.301   3.016
   1.913  -1.040   3.016
  -2.630  -0.148   2.741
  -2.570  -0.459   2.741
  -2.473  -0.761   2.741
  -2.338  -1.047   2.741
  -2.168  -1.315   2.741
  -1.966  -1.559   2.741
  -1.735  -1.776   2.741
  -1.479  -1.962   2.741
  -1.201  -2.115   2.741
  -0.907  -2.231   2.741
  -0.600  -2.310   2.741
  -0.285  -2.350   2.741
   0.031  -2.350   2.741
   0.346  -2.310   2.741
   0.653  -2.231   2.741
   0.947  -2.115   2.741
   1.225  -1.962   2.741
   1.481  -1.776   2.741
   1.712  -1.559   2.741
   1.914  -1.315   2.741
   2.084  -1.047   2.741
  -2.770   0.168   2.451
  -2.751  -0.151   2.451
  -2.693  -0.464   2.451
  -2.598  -0.769   2.451
  -2.467  -1.060   2.451
  -2.302  -1.333   2.451
  -2.105  -1.585   2.451
  -1.880  -1.810   2.451
  -1.628  -2.007   2.451
  -1.355  -2.172   2.451
  -1.064  -2.303   2.451
  -0.759  -2.398   2.451
   1.851  -1.585   2.451
   2.048  -1.333   2.451
   2.213  -1.060   2.451
   2.344  -0.769   2.451
  -2.838   0.485   2.149
  -2.857   0.168   2.149
  -2.838  -0.149   2.149
  -2.783  -0.462   2.149
  -2.692  -0.766   2.149
  -2.566  -1.057   2.149
  -2.408  -1.332   2.149
  -2.218  -1.587   2.149
  -2.000  -1.818   2.149
  -1.757  -2.022   2.149
  -1.492  -2.196   2.149
   2.312  -1.057   2.149
   2.438  -0.766   2.149
  -2.869   0.642   1.840
  -2.905   0.327   1.840
  -2.905   0.009   1.840
  -2.869  -0.306   1.840
  -2.797  -0.616   1.840
  -2.690  -0.915   1.840
  -2.550  -1.200   1.840
  -2.378  -1.467   1.840
  -2.177  -1.713   1.840
   3.277   0.812   0.743
   3.193   0.186   0.743
   3.256   0.496   0.743
   3.429   0.812   0.468
   3.409   1.128   0.468
   3.349   1.439   0.468
   3.252   1.741   0.468
   3.252  -0.117   0.468
   3.349   0.185   0.468
   3.409   0.496   0.468
   3.549   0.812   0.178
   3.530   1.131   0.178
   3.472   1.444   0.178
   3.377   1.749   0.178
   3.246   2.040   0.178
   3.081   2.313   0.178
   2.884   2.565   0.178
   2.659   2.790   0.178
   2.407   2.987   0.178
   2.134   3.152   0.178
   1.843   3.283   0.178
   1.538   3.378   0.178
   3.246  -0.416   0.178
   3.377  -0.125   0.178
   3.472   0.180   0.178
   3.530   0.493   0.178
   3.636   0.812  -0.124
   3.617   1.129  -0.124
   3.562   1.442  -0.124
   3.471   1.746  -0.124
   3.345   2.037  -0.124
   3.187   2.312  -0.124
   2.997   2.567  -0.124
   2.779   2.798  -0.124
   2.536   3.002  -0.124
   2.271   3.176  -0.124
   1.987   3.319  -0.124
   1.689   3.427  -0.124
   1.380   3.500  -0.124
   3.187  -0.688  -0.124
   3.345  -0.413  -0.124
   3.471  -0.122  -0.124
   3.562   0.182  -0.124
   3.617   0.495  -0.124
   3.688   0.812  -0.433
   3.670   1.129  -0.433
   3.616   1.442  -0.433
   3.527   1.747  -0.433
   3.403   2.040  -0.433
   3.247   2.316  -0.433
   3.060   2.573  -0.433
   2.845   2.807  -0.433
   2.605   3.015  -0.433
   2.343   3.195  -0.433
   2.062   3.343  -0.433
   1.766   3.458  -0.433
   1.459   3.539  -0.433
   3.247  -0.692  -0.433
   3.403  -0.416  -0.433
   3.527  -0.123  -0.433
   3.616   0.182  -0.433
   3.670   0.495  -0.433
   3.706   0.812  -0.747
   3.688   1.126  -0.747
   3.636   1.435  -0.747
   3.549   1.737  -0.747
   3.429   2.027  -0.747
   3.277   2.302  -0.747
   3.095   2.558  -0.747
   2.886   2.792  -0.747
   2.652   3.001  -0.747
   2.396   3.183  -0.747
   2.121   3.335  -0.747
   1.831   3.455  -0.747
   1.529   3.542  -0.747
   1.220   3.594  -0.747
   3.095  -0.934  -0.747
   3.277  -0.678  -0.747
   3.429  -0.403  -0.747
   3.549  -0.113  -0.747
   3.636   0.189  -0.747
   3.688   0.498  -0.747
   3.688   0.812  -1.060
   3.670   1.129  -1.060
   3.616   1.442  -1.060
   3.527   1.747  -1.060
   3.403   2.040  -1.060
   3.247   2.316  -1.060
   3.060   2.573  -1.060
   2.845   2.807  -1.060
   2.605   3.015  -1.060
   2.343   3.195  -1.060
   2.062   3.343  -1.060
   1.766   3.458  -1.060
   1.459   3.539  -1.060
   1.144   3.584  -1.060
   3.060  -0.949  -1.060
   3.247  -0.692  -1.060
   3.403  -0.416  -1.060
   3.527  -0.123  -1.060
   3.616   0.182  -1.060
   3.670   0.495  -1.060
   3.636   0.812  -1.370
   3.617   1.129  -1.370
   3.562   1.442  -1.370
   3.471   1.746  -1.370
   3.345   2.037  -1.370
   3.187   2.312  -1.370
   2.997   2.567  -1.370
   2.779   2.798  -1.370
   2.536   3.002  -1.370
   2.271   3.176  -1.370
   1.987   3.319  -1.370
   1.689   3.427  -1.370
   1.380   3.500  -1.370
   1.065   3.537  -1.370
   2.997  -0.943  -1.370
   3.187  -0.688  -1.370
   3.345  -0.413  -1.370
   3.471  -0.122  -1.370
   3.562   0.182  -1.370
   3.617   0.495  -1.370
   3.549   0.812  -1.672
   3.530   1.131  -1.672
   3.472   1.444  -1.672
   3.377   1.749  -1.672
   3.246   2.040  -1.672
   3.081   2.313  -1.672
   2.884   2.565  -1.672
   2.659   2.790  -1.672
   2.407   2.987  -1.672
   2.134   3.152  -1.672
   1.843   3.283  -1.672
   1.538   3.378  -1.672
   1.225   3.436  -1.672
   0.906   3.455  -1.672
   0.587   3.436  -1.672
   2.884  -0.941  -1.672
   3.081  -0.689  -1.672
   3.246  -0.416  -1.672
   3.377  -0.125  -1.672
   3.472   0.180  -1.672
   3.530   0.493  -1.672
   3.429   0.812  -1.962
   3.409   1.128  -1.962
   3.349   1.439  -1.962
   3.252   1.741  -1.962
   3.117   2.027  -1.962
   2.947   2.295  -1.962
   2.745   2.539  -1.962
   2.514   2.756  -1.962
   2.258   2.942  -1.962
   1.980   3.095  -1.962
   1.686   3.211  -1.962
   1.379   3.290  -1.962
   1.064   3.330  -1.962
   0.748   3.330  -1.962
   0.433   3.290  -1.962
   0.126   3.211  -1.962
   2.514  -1.132  -1.962
   2.745  -0.915  -1.962
   2.947  -0.671  -1.962
   3.117  -0.403  -1.962
   3.252  -0.117  -1.962
   3.349   0.185  -1.962
   3.409   0.496  -1.962
   3.277   0.812  -2.237
   3.256   1.128  -2.237
   3.193   1.438  -2.237
   3.089   1.738  -2.237
   2.946   2.020  -2.237
   2.767   2.281  -2.237
   2.554   2.516  -2.237
   2.312   2.721  -2.237
   2.045   2.891  -2.237
   1.758   3.024  -2.237
   1.456   3.118  -2.237
   1.143   3.171  -2.237
   0.827   3.182  -2.237
   0.512   3.150  -2.237
   0.204   3.076  -2.237
   2.312  -1.097  -2.237
   2.554  -0.892  -2.237
   2.767  -0.657  -2.237
   2.946  -0.396  -2.237
   3.089  -0.114  -2.237
   3.193   0.186  -2.237
   3.256   0.496  -2.237
   3.095   0.812  -2.493
   3.072   1.131  -2.493
   3.002   1.443  -2.493
   2.888   1.741  -2.493
   2.732   2.020  -2.493
   2.536   2.273  -2.493
   2.306   2.495  -2.493
   2.046   2.681  -2.493
   1.762   2.827  -2.493
   1.460   2.930  -2.493
   1.145   2.988  -2.493
   0.826   3.000  -2.493
   0.508   2.965  -2.493
   0.199   2.884  -2.493
   2.046  -1.057  -2.493
   2.306  -0.871  -2.493
   2.536  -0.649  -2.493
   2.732  -0.396  -2.493
   2.888  -0.117  -2.493
   3.002   0.181  -2.493
   3.072   0.493  -2.493
   2.886   0.812  -2.727
   2.860   1.130  -2.727
   2.784   1.439  -2.727
   2.659   1.732  -2.727
   2.489   2.001  -2.727
   2.278   2.240  -2.727
   2.031   2.441  -2.727
   1.755   2.601  -2.727
   1.457   2.714  -2.727
   1.145   2.777  -2.727
   0.826   2.790  -2.727
   0.510   2.752  -2.727
   1.755  -0.977  -2.727
   2.031  -0.817  -2.727
   2.278  -0.616  -2.727
   2.489  -0.377  -2.727
   2.659  -0.108  -2.727
   2.784   0.185  -2.727
   2.860   0.494  -2.727
   2.652   0.812  -2.936
   2.622   1.133  -2.936
   2.534   1.443  -2.936
   2.390   1.731  -2.936
   2.196   1.988  -2.936
   1.958   2.205  -2.936
   1.684   2.375  -2.936
   1.384   2.491  -2.936
   1.067   2.550  -2.936
   0.745   2.550  -2.936
   0.428   2.491  -2.936
   1.384  -0.867  -2.936
   1.684  -0.751  -2.936
   1.958  -0.581  -2.936
   2.196  -0.364  -2.936
   2.390  -0.107  -2.936
   2.534   0.181  -2.936
   2.622   0.491  -2.936
   2.396   0.812  -3.118
   2.361   1.132  -3.118
   2.258   1.438  -3.118
   2.092   1.714  -3.118
   1.870   1.947  -3.118
   1.604   2.128  -3.118
   1.305   2.247  -3.118
   0.987   2.300  -3.118
   0.665   2.282  -3.118
   0.987  -0.676  -3.118
   1.305  -0.623  -3.118
   1.604  -0.504  -3.118
   1.870  -0.323  -3.118
   2.092  -0.090  -3.118
   2.258   0.186  -3.118
   2.361   0.492  -3.118
   2.121   0.812  -3.270
   2.079   1.126  -3.270
   1.958   1.419  -3.270
   1.765   1.671  -3.270
   1.513   1.864  -3.270
   1.220   1.985  -3.270
   0.906   2.027  -3.270
   0.592   1.985  -3.270
   0.592  -0.361  -3.270
   0.906  -0.403  -3.270
   1.220  -0.361  -3.270
   1.513  -0.240  -3.270
   1.765  -0.047  -3.270
   1.958   0.205  -3.270
   2.079   0.498  -3.270
   1.831   0.812  -3.390
   1.775   1.128  -3.390
   1.614   1.406  -3.390
   1.368   1.613  -3.390
   1.067   1.723  -3.390
   0.745   1.723  -3.390
   0.745  -0.099  -3.390
   1.067  -0.099  -3.390
   1.368   0.011  -3.390
   1.614   0.218  -3.390
   1.775   0.496  -3.390
   1.529   0.812  -3.477
   1.446   1.124  -3.477
   1.218   1.352  -3.477
   0.906   1.435  -3.477
   0.594   0.272  -3.477
   0.906   0.189  -3.477
   1.218   0.272  -3.477
   1.446   0.500  -3.477
   1.220   0.812  -3.529
   1.063   1.084  -3.529
   0.749   1.084  -3.529
   0.749   0.540  -3.529
   1.063   0.540  -3.529
   0.906   0.812  -3.547
   0.197  -2.453   2.665
   0.527  -2.454   2.665
   0.836  -2.341   2.665
   1.088  -2.129   2.665
  -0.261  -2.598   2.542
   0.040  -2.723   2.542
   0.362  -2.765   2.542
   0.684  -2.723   2.542
   0.985  -2.598   2.542
   1.243  -2.401   2.542
   1.440  -2.143   2.542
   1.565  -1.842   2.542
  -0.747  -2.570   2.386
  -0.495  -2.784   2.386
  -0.203  -2.938   2.386
   0.115  -3.027   2.386
   0.445  -3.045   2.386
   0.770  -2.991   2.386
   1.077  -2.869   2.386
   1.351  -2.684   2.386
   1.578  -2.444   2.386
   1.748  -2.161   2.386
   1.853  -1.848   2.386
   2.151  -1.520   2.200
  -1.159  -2.462   2.200
  -0.960  -2.726   2.200
  -0.716  -2.948   2.200
  -0.436  -3.122   2.200
  -0.128  -3.241   2.200
   0.197  -3.302   2.200
   0.527  -3.302   2.200
   0.852  -3.241   2.200
   1.160  -3.122   2.200
   1.440  -2.948   2.200
   1.684  -2.726   2.200
   1.883  -2.462   2.200
   2.031  -2.166   2.200
   2.121  -1.849   2.200
   2.391  -1.520   1.985
   2.365  -1.194   1.985
  -1.505  -2.315   1.985
  -1.353  -2.605   1.985
  -1.157  -2.866   1.985
  -0.921  -3.092   1.985
  -0.653  -3.278   1.985
  -0.358  -3.418   1.985
  -0.044  -3.508   1.985
   0.280  -3.548   1.985
   0.607  -3.535   1.985
   0.927  -3.469   1.985
   1.232  -3.353   1.985
   1.515  -3.190   1.985
   1.768  -2.984   1.985
   1.984  -2.739   1.985
   2.159  -2.463   1.985
   2.287  -2.163   1.985
   2.365  -1.846   1.985
   2.606  -1.520   1.745
   2.582  -1.193   1.745
  -1.734  -2.322   1.745
  -1.595  -2.618   1.745
  -1.414  -2.891   1.745
  -1.195  -3.135   1.745
  -0.944  -3.345   1.745
  -0.664  -3.516   1.745
  -0.363  -3.644   1.745
  -0.046  -3.727   1.745
   0.280  -3.762   1.745
   0.607  -3.750   1.745
   0.930  -3.691   1.745
   1.240  -3.585   1.745
   1.531  -3.435   1.745
   1.797  -3.245   1.745
   2.033  -3.017   1.745
   2.233  -2.758   1.745
   2.394  -2.472   1.745
   2.511  -2.166   1.745
   2.582  -1.847   1.745
   2.792  -1.520   1.483
   2.770  -1.196   1.483
  -1.934  -2.317   1.483
  -1.807  -2.616   1.483
  -1.641  -2.895   1.483
  -1.440  -3.150   1.483
  -1.207  -3.376   1.483
  -0.946  -3.568   1.483
  -0.661  -3.724   1.483
  -0.358  -3.841   1.483
  -0.042  -3.916   1.483
   0.281  -3.949   1.483
   0.605  -3.938   1.483
   0.925  -3.884   1.483
   1.235  -3.788   1.483
   1.530  -3.651   1.483
   1.803  -3.476   1.483
   2.051  -3.267   1.483
   2.269  -3.026   1.483
   2.453  -2.758   1.483
   2.599  -2.469   1.483
   2.706  -2.162   1.483
   2.770  -1.844   1.483
   2.948  -1.520   1.201
   2.927  -1.196   1.201
  -2.042  -2.472   1.201
  -1.904  -2.766   1.201
  -1.730  -3.040   1.201
  -1.523  -3.290   1.201
  -1.286  -3.512   1.201
  -1.024  -3.703   1.201
  -0.739  -3.860   1.201
  -0.437  -3.979   1.201
  -0.123  -4.060   1.201
   0.200  -4.101   1.201
   0.524  -4.101   1.201
   0.847  -4.060   1.201
   1.161  -3.979   1.201
   1.463  -3.860   1.201
   1.748  -3.703   1.201
   2.010  -3.512   1.201
   2.247  -3.290   1.201
   2.454  -3.040   1.201
   2.628  -2.766   1.201
   2.766  -2.472   1.201
   2.867  -2.163   1.201
   2.927  -1.844   1.201
   3.071  -1.520   0.904
   3.051  -1.193   0.904
  -2.171  -2.481   0.904
  -2.037  -2.779   0.904
  -1.867  -3.059   0.904
  -1.666  -3.316   0.904
  -1.434  -3.548   0.904
  -1.177  -3.749   0.904
  -0.897  -3.919   0.904
  -0.599  -4.053   0.904
  -0.286  -4.150   0.904
   0.035  -4.209   0.904
   0.362  -4.229   0.904
   0.689  -4.209   0.904
   1.010  -4.150   0.904
   1.323  -4.053   0.904
   1.621  -3.919   0.904
   1.901  -3.749   0.904
   2.158  -3.548   0.904
   2.390  -3.316   0.904
   2.591  -3.059   0.904
   2.761  -2.779   0.904
   2.895  -2.481   0.904
   2.992  -2.168   0.904
   3.051  -1.847   0.904
   3.160  -1.520   0.595
   3.141  -1.195   0.595
   3.085  -0.875   0.595
  -2.138  -2.776   0.595
  -1.976  -3.058   0.595
  -1.781  -3.319   0.595
  -1.558  -3.555   0.595
  -1.309  -3.764   0.595
  -1.037  -3.943   0.595
  -0.746  -4.089   0.595
  -0.440  -4.200   0.595
  -0.124  -4.276   0.595
   0.199  -4.313   0.595
   0.525  -4.313   0.595
   0.848  -4.276   0.595
   1.164  -4.200   0.595
   1.470  -4.089   0.595
   1.761  -3.943   0.595
   2.033  -3.764   0.595
   2.282  -3.555   0.595
   2.505  -3.319   0.595
   2.700  -3.058   0.595
   2.862  -2.776   0.595
   2.991  -2.477   0.595
   3.085  -2.165   0.595
   3.141  -1.845   0.595
   3.214  -1.520   0.277
   3.195  -1.195   0.277
   3.140  -0.874   0.277
  -2.121  -2.922   0.277
  -1.945  -3.196   0.277
  -1.739  -3.448   0.277
  -1.506  -3.675   0.277
  -1.248  -3.874   0.277
  -0.969  -4.042   0.277
  -0.673  -4.178   0.277
  -0.363  -4.278   0.277
  -0.044  -4.343   0.277
   0.281  -4.371   0.277
   0.606  -4.361   0.277
   0.928  -4.315   0.277
   1.243  -4.232   0.277
   1.547  -4.114   0.277
   1.835  -3.962   0.277
   2.104  -3.778   0.277
   2.350  -3.565   0.277
   2.570  -3.325   0.277
   2.761  -3.062   0.277
   2.921  -2.778   0.277
   3.048  -2.478   0.277
   3.140  -2.166   0.277
   3.195  -1.845   0.277
   3.232  -1.520  -0.044
   3.214  -1.199  -0.044
   3.160  -0.881  -0.044
  -2.068  -3.047  -0.044
  -1.882  -3.309  -0.044
  -1.667  -3.549  -0.044
  -1.427  -3.764  -0.044
  -1.165  -3.950  -0.044
  -0.883  -4.106  -0.044
  -0.586  -4.229  -0.044
  -0.277  -4.318  -0.044
   0.041  -4.372  -0.044
   0.362  -4.390  -0.044
   0.683  -4.372  -0.044
   1.001  -4.318  -0.044
   1.310  -4.229  -0.044
   1.607  -4.106  -0.044
   1.889  -3.950  -0.044
   2.151  -3.764  -0.044
   2.391  -3.549  -0.044
   2.606  -3.309  -0.044
   2.792  -3.047  -0.044
   2.948  -2.765  -0.044
   3.071  -2.468  -0.044
   3.160  -2.159  -0.044
   3.214  -1.841  -0.044
   3.214  -1.520  -0.365
   3.195  -1.195  -0.365
   3.140  -0.874  -0.365
  -2.121  -2.922  -0.365
  -1.945  -3.196  -0.365
  -1.739  -3.448  -0.365
  -1.506  -3.675  -0.365
  -1.248  -3.874  -0.365
  -0.969  -4.042  -0.365
  -0.673  -4.178  -0.365
  -0.363  -4.278  -0.365
  -0.044  -4.343  -0.365
   0.281  -4.371  -0.365
   0.606  -4.361  -0.365
   0.928  -4.315  -0.365
   1.243  -4.232  -0.365
   1.547  -4.114  -0.365
   1.835  -3.962  -0.365
   2.104  -3.778  -0.365
   2.350  -3.565  -0.365
   2.570  -3.325  -0.365
   2.761  -3.062  -0.365
   2.921  -2.778  -0.365
   3.048  -2.478  -0.365
   3.140  -2.166  -0.365
   3.195  -1.845  -0.365
   3.160  -1.520  -0.683
   3.141  -1.195  -0.683
  -1.976  -3.058  -0.683
  -1.781  -3.319  -0.683
  -1.558  -3.555  -0.683
  -1.309  -3.764  -0.683
  -1.037  -3.943  -0.683
  -0.746  -4.089  -0.683
  -0.440  -4.200  -0.683
  -0.124  -4.276  -0.683
   0.199  -4.313  -0.683
   0.525  -4.313  -0.683
   0.848  -4.276  -0.683
   1.164  -4.201  -0.683
   1.470  -4.089  -0.683
   1.761  -3.943  -0.683
   2.033  -3.764  -0.683
   2.282  -3.555  -0.683
   2.505  -3.319  -0.683
   2.700  -3.058  -0.683
   2.862  -2.776  -0.683
   2.991  -2.477  -0.683
   3.085  -2.165  -0.683
   3.141  -1.845  -0.683
   3.071  -1.520  -0.992
   3.051  -1.193  -0.992
  -1.867  -3.059  -0.992
  -1.666  -3.316  -0.992
  -1.434  -3.548  -0.992
  -1.177  -3.749  -0.992
  -0.897  -3.919  -0.992
  -0.599  -4.053  -0.992
  -0.286  -4.150  -0.992
   0.035  -4.209  -0.992
   0.362  -4.229  -0.992
   0.689  -4.209  -0.992
   1.010  -4.150  -0.992
   1.323  -4.053  -0.992
   1.621  -3.919  -0.992
   1.901  -3.749  -0.992
   2.158  -3.548  -0.992
   2.390  -3.316  -0.992
   2.591  -3.059  -0.992
   2.761  -2.779  -0.992
   2.895  -2.481  -0.992
   2.992  -2.168  -0.992
   3.051  -1.847  -0.992
   2.948  -1.520  -1.289
   2.927  -1.196  -1.289
  -1.730  -3.040  -1.289
  -1.523  -3.290  -1.289
  -1.286  -3.512  -1.289
  -1.024  -3.703  -1.289
  -0.739  -3.860  -1.289
  -0.437  -3.979  -1.289
  -0.123  -4.060  -1.289
   0.200  -4.101  -1.289
   0.524  -4.101  -1.289
   0.847  -4.060  -1.289
   1.161  -3.979  -1.289
   1.463  -3.860  -1.289
   1.748  -3.703  -1.289
   2.010  -3.512  -1.289
   2.247  -3.290  -1.289
   2.454  -3.040  -1.289
   2.628  -2.766  -1.289
   2.766  -2.472  -1.289
   2.867  -2.163  -1.289
   2.927  -1.844  -1.289
   2.792  -1.520  -1.571
   2.770  -1.196  -1.571
  -1.641  -2.895  -1.571
  -1.440  -3.150  -1.571
  -1.207  -3.376  -1.571
  -0.946  -3.568  -1.571
  -0.661  -3.724  -1.571
  -0.358  -3.841  -1.571
  -0.042  -3.916  -1.571
   0.281  -3.949  -1.571
   0.605  -3.938  -1.571
   0.925  -3.884  -1.571
   1.235  -3.788  -1.571
   1.530  -3.651  -1.571
   1.803  -3.476  -1.571
   2.051  -3.267  -1.571
   2.269  -3.026  -1.571
   2.453  -2.758  -1.571
   2.599  -2.469  -1.571
   2.706  -2.162  -1.571
   2.770  -1.844  -1.571
   2.606  -1.520  -1.833
   2.582  -1.193  -1.833
  -1.414  -2.891  -1.833
  -1.195  -3.135  -1.833
  -0.944  -3.345  -1.833
  -0.664  -3.516  -1.833
  -0.363  -3.644  -1.833
  -0.046  -3.727  -1.833
   0.280  -3.762  -1.833
   0.607  -3.750  -1.833
   0.930  -3.691  -1.833
   1.240  -3.585  -1.833
   1.531  -3.435  -1.833
   1.797  -3.245  -1.833
   2.033  -3.017  -1.833
   2.233  -2.758  -1.833
   2.394  -2.472  -1.833
   2.511  -2.166  -1.833
   2.582  -1.847  -1.833
   2.391  -1.520  -2.073
   2.365  -1.194  -2.073
  -1.353  -2.605  -2.073
  -1.157  -2.866  -2.073
  -0.921  -3.092  -2.073
  -0.653  -3.278  -2.073
  -0.358  -3.418  -2.073
  -0.044  -3.508  -2.073
   0.280  -3.548  -2.073
   0.607  -3.535  -2.073
   0.927  -3.469  -2.073
   1.232  -3.353  -2.073
   1.515  -3.190  -2.073
   1.768  -2.984  -2.073
   1.984  -2.739  -2.073
   2.159  -2.463  -2.073
   2.287  -2.163  -2.073
   2.365  -1.846  -2.073
   2.151  -1.520  -2.288
   2.121  -1.191  -2.288
  -1.159  -2.462  -2.288
  -0.960  -2.726  -2.288
  -0.716  -2.948  -2.288
  -0.436  -3.122  -2.288
  -0.128  -3.241  -2.288
   0.197  -3.302  -2.288
   0.527  -3.302  -2.288
   0.852  -3.241  -2.288
   1.160  -3.122  -2.288
   1.440  -2.948  -2.288
   1.684  -2.726  -2.288
   1.883  -2.462  -2.288
   2.031  -2.166  -2.288
   2.121  -1.849  -2.288
   1.889  -1.520  -2.474
   1.853  -1.192  -2.474
  -0.946  -2.307  -2.474
  -0.747  -2.570  -2.474
  -0.495  -2.784  -2.474
  -0.203  -2.938  -2.474
   0.115  -3.027  -2.474
   0.445  -3.045  -2.474
   0.770  -2.991  -2.474
   1.077  -2.869  -2.474
   1.351  -2.684  -2.474
   1.578  -2.444  -2.474
   1.748  -2.161  -2.474
   1.853  -1.848  -2.474
   1.607  -1.520  -2.630
  -0.716  -2.143  -2.630
  -0.519  -2.401  -2.630
  -0.261  -2.598  -2.630
   0.040  -2.723  -2.630
   0.362  -2.765  -2.630
   0.684  -2.723  -2.630
   0.985  -2.598  -2.630
   1.243  -2.401  -2.630
   1.440  -2.143  -2.630
   1.565  -1.842  -2.630
   1.310  -1.520  -2.753
  -0.529  -1.844  -2.753
  -0.364  -2.129  -2.753
  -0.112  -2.341  -2.753
   0.197  -2.454  -2.753
   0.527  -2.454  -2.753
   0.836  -2.341  -2.753
   1.088  -2.129  -2.753
   1.253  -1.844  -2.753
   1.001  -1.520  -2.842
  -0.191  -1.839  -2.842
   0.043  -2.073  -2.842
   0.362  -2.159  -2.842
   0.681  -2.073  -2.842
   0.915  -1.839  -2.842
   0.683  -1.520  -2.896
   0.201  -1.798  -2.896
   0.523  -1.798  -2.896
  -2.960   0.003   1.769
  -2.960  -0.319   1.769
  -2.891  -0.634   1.769
  -2.755  -0.926   1.769
  -3.107   0.473   1.587
  -3.195   0.163   1.587
  -3.225  -0.158   1.587
  -3.195  -0.479   1.587
  -3.107  -0.789   1.587
  -2.963  -1.077   1.587
  -2.769  -1.334   1.587
  -2.531  -1.551   1.587
  -3.452   0.001   1.378
  -3.452  -0.317   1.378
  -3.401  -0.632   1.378
  -3.300  -0.934   1.378
  -3.152  -1.216   1.378
  -2.961  -1.471   1.378
  -2.731  -1.692   1.378
  -2.469  -1.873   1.378
  -3.662  -0.318   1.144
  -3.616  -0.634   1.144
  -3.524  -0.940   1.144
  -3.388  -1.229   1.144
  -3.212  -1.496   1.144
  -2.998  -1.734   1.144
  -2.753  -1.938   1.144
  -2.480  -2.105   1.144
  -3.802  -0.630   0.888
  -3.719  -0.936   0.888
  -3.595  -1.227   0.888
  -3.434  -1.500   0.888
  -3.237  -1.748   0.888
  -3.010  -1.968   0.888
  -2.755  -2.156   0.888
  -2.477  -2.309   0.888
  -3.922  -0.785   0.613
  -3.825  -1.087   0.613
  -3.690  -1.373   0.613
  -3.520  -1.641   0.613
  -3.318  -1.885   0.613
  -3.087  -2.102   0.613
  -2.831  -2.288   0.613
  -2.553  -2.441   0.613
  -2.259  -2.557   0.613
  -3.819  -1.386   0.323
  -3.654  -1.659   0.323
  -3.457  -1.911   0.323
  -3.232  -2.136   0.323
  -2.980  -2.333   0.323
  -2.707  -2.498   0.323
  -2.416  -2.629   0.323
  -3.760  -1.658   0.021
  -3.570  -1.913   0.021
  -3.352  -2.144   0.021
  -3.109  -2.348   0.021
  -2.844  -2.522   0.021
  -2.560  -2.665   0.021
  -2.262  -2.773   0.021
  -3.730  -1.793  -0.288
  -3.529  -2.039  -0.288
  -3.301  -2.261  -0.288
  -3.050  -2.455  -0.288
  -2.777  -2.619  -0.288
  -2.488  -2.751  -0.288
  -2.186  -2.849  -0.288
  -3.459  -2.138  -0.602
  -3.225  -2.347  -0.602
  -2.969  -2.529  -0.602
  -2.694  -2.681  -0.602
  -2.404  -2.801  -0.602
  -2.102  -2.888  -0.602
  -3.529  -2.039  -0.915
  -3.301  -2.261  -0.915
  -3.050  -2.455  -0.915
  -2.777  -2.619  -0.915
  -2.488  -2.751  -0.915
  -2.186  -2.849  -0.915
  -3.352  -2.144  -1.225
  -3.109  -2.348  -1.225
  -2.844  -2.522  -1.225
  -2.560  -2.665  -1.225
  -2.262  -2.773  -1.225
  -1.953  -2.846  -1.225
  -3.232  -2.136  -1.527
  -2.980  -2.333  -1.527
  -2.707  -2.498  -1.527
  -2.416  -2.629  -1.527
  -2.111  -2.724  -1.527
  -1.798  -2.782  -1.527
  -2.831  -2.288  -1.817
  -2.553  -2.441  -1.817
  -2.259  -2.557  -1.817
  -1.952  -2.636  -1.817
  -1.637  -2.676  -1.817
  -2.755  -2.156  -2.092
  -2.477  -2.309  -2.092
  -2.181  -2.422  -2.092
  -1.873  -2.496  -2.092
  -1.558  -2.528  -2.092
  -2.480  -2.105  -2.348
  -2.186  -2.230  -2.348
  -1.877  -2.311  -2.348
  -1.559  -2.346  -2.348
  -1.240  -2.334  -2.348
  -2.181  -2.009  -2.582
  -1.875  -2.098  -2.582
  -1.559  -2.136  -2.582
  -1.240  -2.123  -2.582
  -0.928  -2.060  -2.582
  -1.640  -1.896  -2.791
  -1.318  -1.896  -2.791
  -1.001  -1.837  -2.791
  -0.701  -1.721  -2.791
  -1.080  -1.593  -2.973
  -0.781  -1.474  -2.973
  -3.176   0.856   1.549
  -3.497   0.856   1.416
  -3.451   0.508   1.416
  -3.792   1.034   1.248
  -3.792   0.678   1.248
  -3.715   0.329   1.248
  -4.052   1.211   1.047
  -4.085   0.856   1.047
  -4.052   0.501   1.047
  -3.954   0.158   1.047
  -3.795  -0.161   1.047
  -4.280   1.381   0.815
  -4.337   1.032   0.815
  -4.337   0.680   0.815
  -4.280   0.331   0.815
  -4.169  -0.003   0.815
  -4.005  -0.316   0.815
  -4.416   1.722   0.556
  -4.518   1.383   0.556
  -4.632   1.717   0.272
  -4.749   1.884  -0.032
  -4.743   2.216  -0.353
  -4.677   2.517  -0.687
  -4.644   2.667  -1.030
  -4.576   2.789  -1.377
  -4.777   2.505  -1.377
  -4.169   3.184  -1.724
  -4.422   2.939  -1.724
  -4.644   2.667  -1.724
  -3.957   3.280  -2.067
  -4.226   3.054  -2.067
  -4.467   2.799  -2.067
  -4.677   2.517  -2.067
  -0.792   3.447  -2.401
  -3.190   3.592  -2.401
  -3.512   3.447  -2.401
  -3.814   3.264  -2.401
  -4.092   3.046  -2.401
  -4.342   2.796  -2.401
  -4.560   2.518  -2.401
  -2.852  -1.985  -2.401
  -2.505  -2.049  -2.401
  -1.289   3.512  -2.722
  -1.629   3.600  -2.722
  -1.977   3.643  -2.722
  -2.327   3.643  -2.722
  -2.675   3.600  -2.722
  -3.015   3.512  -2.722
  -3.341   3.383  -2.722
  -3.649   3.214  -2.722
  -3.932   3.008  -2.722
  -4.188   2.768  -2.722
  -4.412   2.498  -2.722
  -2.675  -1.888  -2.722
  -2.327  -1.931  -2.722
  -1.977  -1.931  -2.722
  -1.889   3.468  -3.026
  -2.240   3.479  -3.026
  -2.589   3.444  -3.026
  -2.930   3.363  -3.026
  -3.257   3.237  -3.026
  -3.564   3.068  -3.026
  -3.847   2.860  -3.026
  -4.099   2.617  -3.026
  -4.316   2.342  -3.026
  -2.589  -1.732  -3.026
  -2.240  -1.767  -3.026
  -1.889  -1.756  -3.026
  -1.544  -1.697  -3.026
  -1.209  -1.593  -3.026
  -0.891  -1.446  -3.026
  -2.592   3.239  -3.310
  -2.935   3.150  -3.310
  -3.260   3.011  -3.310
  -3.562   2.827  -3.310
  -3.834   2.601  -3.310
  -4.070   2.337  -3.310
  -4.266   2.042  -3.310
  -2.935  -1.438  -3.310
  -2.592  -1.527  -3.310
  -2.241  -1.566  -3.310
  -1.887  -1.553  -3.310
  -1.539  -1.489  -3.310
  -2.929   2.906  -3.569
  -3.248   2.754  -3.569
  -3.538   2.554  -3.569
  -3.793   2.310  -3.569
  -4.005   2.028  -3.569
  -2.929  -1.194  -3.569
  -2.590  -1.292  -3.569
  -2.240  -1.334  -3.569
  -1.888  -1.320  -3.569
  -3.317   2.398  -3.801
  -3.580   2.158  -3.801
  -3.795   1.874  -3.801
  -3.954   1.554  -3.801
  -3.014  -0.874  -3.801
  -2.681  -1.003  -3.801
  -2.330  -1.069  -3.801
  -3.349   1.990  -4.002
  -3.565   1.706  -4.002
  -3.715   1.383  -4.002
  -3.792   1.034  -4.002
  -3.078  -0.509  -4.002
  -3.497   0.856  -4.170
  -3.451   0.508  -4.170
  -3.317   0.183  -4.170
  -4.357   1.936   0.564
  -4.429   2.372   0.309
  -4.484   2.083   0.309
  -4.455   2.659   0.040
  -4.543   2.376   0.040
  -4.425   2.927  -0.240
  -4.542   2.656  -0.240
  -4.626   2.374  -0.240
  -4.410   3.059  -0.528
  -4.540   2.795  -0.528
  -4.639   2.517  -0.528
  -4.193   3.410  -0.819
  -4.361   3.172  -0.819
  -4.503   2.917  -0.819
  -3.852   3.742  -1.110
  -4.063   3.536  -1.110
  -4.250   3.308  -1.110
  -4.410   3.059  -1.110
  -3.674   3.822  -1.398
  -3.899   3.633  -1.398
  -4.102   3.418  -1.398
  -4.278   3.182  -1.398
  -3.300   3.962  -1.678
  -3.554   3.809  -1.678
  -3.787   3.626  -1.678
  -3.997   3.416  -1.678
  -4.180   3.183  -1.678
  -2.884   4.017  -1.947
  -3.157   3.909  -1.947
  -3.415   3.767  -1.947
  -3.653   3.594  -1.947
  -3.868   3.393  -1.947
  -2.526   3.960  -2.202
  -2.812   3.892  -2.202
  -3.087   3.786  -2.202
  -3.345   3.645  -2.202
  -1.365   3.660  -2.440
  -1.646   3.756  -2.440
  -1.938   3.810  -2.440
  -2.234   3.820  -2.440
  -2.529   3.788  -2.440
  -2.816   3.713  -2.440
  -0.018   2.992  -2.325
  -0.256   3.160  -2.325
   0.162   2.812  -2.616
  -0.061   3.005  -2.616