 $system timlim=999888777
         mwords=100 $end
 $contrl exetyp=run
         runtyp=energy scftyp=rhf
         icharg=-1 mult=1 units=angs coord=unique
         maxit=50 ispher=1 qmttol=1d-6 icut=12 itol=22 $end
 $scf    dirscf=.t. diis=.t. soscf=.f.
         fdiff=.f. conv=1d-6
         npreo(1)=0,-1,1,9999 $end
 $elpot  iepot=1 where=points $end
 $basis  gbasis=n311 ngauss=6
         ndfunc=1 npfunc=1 diffsp=.t. diffs=.t. $end
 $DATA
TS1a_hfd_irc200_all_revmov.pdb
C1
P     15.0    -0.04600  -0.01200  -0.01600 
O      8.0    -0.12600   0.09900   1.53500 
O      8.0     0.90500   0.82900  -0.71900 
F      9.0     0.36800  -1.52400  -0.09800 
O      8.0    -1.48000  -0.15600  -0.60300 
C      6.0    -2.15200   0.85600  -1.37700 
H      1.0    -2.16800   1.78100  -0.80900 
H      1.0    -1.63100   0.97100  -2.32000 
H      1.0    -3.14200   0.45800  -1.55300 
C      6.0     0.16800   1.29200   2.28500 
H      1.0    -0.06000   1.03700   3.31100 
H      1.0     1.22500   1.50900   2.18800 
H      1.0    -0.44700   2.10600   1.91000 
O      8.0    -1.60300   2.99400   0.61200 
H      1.0    -1.13300   3.72500   0.22800 
 $END
 $POINTS
ANGS 3095
  -2.350  -1.593   1.740
  -2.118  -1.886   1.740
  -1.850  -2.146   1.740
   2.649  -0.750   1.740
  -2.213  -2.047   1.416
   2.834  -0.751   1.416
   2.904  -0.385   1.416
   3.069  -0.012   1.074
   2.978  -0.757   1.074
   3.046  -0.387   1.074
   3.171  -0.012   0.718
   3.085  -0.754   0.718
   3.150  -0.386   0.718
   3.148  -0.755   0.353
   3.212  -0.386   0.353
   3.171  -0.746  -0.016
   1.352  -1.075  -2.810
  -0.417  -1.395  -2.989
  -0.046  -1.444  -2.989
   0.325  -1.395  -2.989
   0.670  -1.252  -2.989
   0.966  -1.024  -2.989
  -0.235  -1.085  -3.131
   0.143  -1.085  -3.131
   0.499  -0.956  -3.131
   0.789  -0.713  -3.131
   0.321  -0.648  -3.233
   0.590  -0.379  -3.233
  -1.178  -1.294   3.724
  -0.904  -1.464   3.724
  -0.604  -1.580   3.724
  -0.287  -1.639   3.724
   0.035  -1.639   3.724
   0.352  -1.580   3.724
   0.652  -1.464   3.724
  -1.799  -0.959   3.515
  -1.608  -1.214   3.515
  -1.378  -1.435   3.515
  -1.116  -1.616   3.515
  -0.828  -1.752   3.515
  -0.522  -1.841   3.515
  -0.206  -1.879   3.515
   0.113  -1.866   3.515
   0.425  -1.803   3.515
   0.723  -1.690   3.515
   0.999  -1.530   3.515
  -2.263  -0.377   3.281
  -2.171  -0.683   3.281
  -2.035  -0.972   3.281
  -1.859  -1.239   3.281
  -1.645  -1.477   3.281
  -1.400  -1.681   3.281
  -1.127  -1.848   3.281
  -0.833  -1.973   3.281
  -0.524  -2.054   3.281
  -0.206  -2.089   3.281
   0.113  -2.077   3.281
   0.428  -2.019   3.281
   0.730  -1.916   3.281
   1.014  -1.770   3.281
   1.274  -1.584   3.281
   1.504  -1.362   3.281
  -2.449  -0.373   3.025
  -2.366  -0.679   3.025
  -2.242  -0.970   3.025
  -2.081  -1.243   3.025
  -1.884  -1.491   3.025
  -1.657  -1.711   3.025
  -1.402  -1.899   3.025
  -1.124  -2.052   3.025
  -0.828  -2.165   3.025
  -0.520  -2.239   3.025
  -0.205  -2.271   3.025
   0.111  -2.260   3.025
   0.424  -2.207   3.025
   0.726  -2.113   3.025
   1.013  -1.980   3.025
   1.280  -1.810   3.025
   1.522  -1.605   3.025
   1.735  -1.370   3.025
  -2.629  -0.217   2.750
  -2.569  -0.528   2.750
  -2.472  -0.830   2.750
  -2.337  -1.116   2.750
  -2.167  -1.384   2.750
  -1.965  -1.628   2.750
  -1.734  -1.845   2.750
  -1.478  -2.031   2.750
  -1.200  -2.184   2.750
  -0.906  -2.300   2.750
  -0.599  -2.379   2.750
  -0.284  -2.419   2.750
   0.032  -2.419   2.750
   0.347  -2.379   2.750
   0.654  -2.300   2.750
   0.948  -2.184   2.750
   1.226  -2.031   2.750
   1.482  -1.845   2.750
   1.713  -1.628   2.750
   1.915  -1.384   2.750
   2.085  -1.116   2.750
  -2.769   0.099   2.460
  -2.750  -0.220   2.460
  -2.692  -0.533   2.460
  -2.597  -0.838   2.460
  -2.466  -1.129   2.460
  -2.301  -1.402   2.460
  -2.104  -1.654   2.460
  -1.879  -1.879   2.460
  -1.627  -2.076   2.460
  -1.354  -2.241   2.460
  -1.063  -2.372   2.460
  -0.758  -2.467   2.460
   1.627  -1.879   2.460
   1.852  -1.654   2.460
   2.049  -1.402   2.460
   2.214  -1.129   2.460
  -2.837   0.416   2.158
  -2.856   0.099   2.158
  -2.837  -0.218   2.158
  -2.782  -0.531   2.158
  -2.691  -0.835   2.158
  -2.565  -1.126   2.158
  -2.407  -1.401   2.158
  -2.217  -1.656   2.158
  -1.999  -1.887   2.158
  -1.756  -2.091   2.158
  -1.491  -2.265   2.158
  -1.207  -2.408   2.158
   2.155  -1.401   2.158
   2.313  -1.126   2.158
   2.439  -0.835   2.158
  -2.868   0.573   1.849
  -2.904   0.258   1.849
  -2.904  -0.060   1.849
  -2.868  -0.375   1.849
  -2.796  -0.685   1.849
  -2.689  -0.984   1.849
  -2.549  -1.269   1.849
  -2.377  -1.536   1.849
  -2.176  -1.782   1.849
  -1.948  -2.004   1.849
  -1.697  -2.198   1.849
   3.192   0.203   0.771
   3.255   0.513   0.771
   3.428   0.829   0.496
   3.408   1.145   0.496
   3.348   1.456   0.496
   3.251   1.758   0.496
   3.251  -0.100   0.496
   3.348   0.202   0.496
   3.408   0.513   0.496
   3.548   0.829   0.206
   3.529   1.148   0.206
   3.471   1.461   0.206
   3.376   1.766   0.206
   3.245   2.057   0.206
   3.080   2.330   0.206
   2.883   2.582   0.206
   2.658   2.807   0.206
   2.406   3.004   0.206
   2.133   3.169   0.206
   1.842   3.300   0.206
   1.537   3.395   0.206
   3.245  -0.399   0.206
   3.376  -0.108   0.206
   3.471   0.197   0.206
   3.529   0.510   0.206
   3.635   0.829  -0.096
   3.616   1.146  -0.096
   3.561   1.459  -0.096
   3.470   1.763  -0.096
   3.344   2.054  -0.096
   3.186   2.329  -0.096
   2.996   2.584  -0.096
   2.778   2.815  -0.096
   2.535   3.019  -0.096
   2.270   3.193  -0.096
   1.986   3.336  -0.096
   1.688   3.444  -0.096
   3.344  -0.396  -0.096
   3.470  -0.105  -0.096
   3.561   0.199  -0.096
   3.616   0.512  -0.096
   3.687   0.829  -0.405
   3.669   1.146  -0.405
   3.615   1.459  -0.405
   3.526   1.764  -0.405
   3.402   2.057  -0.405
   3.246   2.333  -0.405
   3.059   2.590  -0.405
   2.844   2.824  -0.405
   2.604   3.032  -0.405
   2.342   3.212  -0.405
   2.061   3.360  -0.405
   1.765   3.475  -0.405
   1.458   3.556  -0.405
   3.246  -0.675  -0.405
   3.402  -0.399  -0.405
   3.526  -0.106  -0.405
   3.615   0.199  -0.405
   3.669   0.512  -0.405
   3.705   0.829  -0.719
   3.687   1.143  -0.719
   3.635   1.452  -0.719
   3.548   1.754  -0.719
   3.428   2.044  -0.719
   3.276   2.319  -0.719
   3.094   2.575  -0.719
   2.885   2.809  -0.719
   2.651   3.018  -0.719
   2.395   3.200  -0.719
   2.120   3.352  -0.719
   1.830   3.472  -0.719
   1.528   3.559  -0.719
   3.276  -0.661  -0.719
   3.428  -0.386  -0.719
   3.548  -0.096  -0.719
   3.635   0.206  -0.719
   3.687   0.515  -0.719
   3.687   0.829  -1.032
   3.669   1.146  -1.032
   3.615   1.459  -1.032
   3.526   1.764  -1.032
   3.402   2.057  -1.032
   3.246   2.333  -1.032
   3.059   2.590  -1.032
   2.844   2.824  -1.032
   2.604   3.032  -1.032
   2.342   3.212  -1.032
   2.061   3.360  -1.032
   1.765   3.475  -1.032
   1.458   3.556  -1.032
   1.143   3.601  -1.032
   3.059  -0.932  -1.032
   3.246  -0.675  -1.032
   3.402  -0.399  -1.032
   3.526  -0.106  -1.032
   3.615   0.199  -1.032
   3.669   0.512  -1.032
   3.635   0.829  -1.342
   3.616   1.146  -1.342
   3.561   1.459  -1.342
   3.470   1.763  -1.342
   3.344   2.054  -1.342
   3.186   2.329  -1.342
   2.996   2.584  -1.342
   2.778   2.815  -1.342
   2.535   3.019  -1.342
   2.270   3.193  -1.342
   1.986   3.336  -1.342
   1.688   3.444  -1.342
   1.379   3.517  -1.342
   1.064   3.554  -1.342
   2.996  -0.926  -1.342
   3.186  -0.671  -1.342
   3.344  -0.396  -1.342
   3.470  -0.105  -1.342
   3.561   0.199  -1.342
   3.616   0.512  -1.342
   3.548   0.829  -1.644
   3.529   1.148  -1.644
   3.471   1.461  -1.644
   3.376   1.766  -1.644
   3.245   2.057  -1.644
   3.080   2.330  -1.644
   2.883   2.582  -1.644
   2.658   2.807  -1.644
   2.406   3.004  -1.644
   2.133   3.169  -1.644
   1.842   3.300  -1.644
   1.537   3.395  -1.644
   1.224   3.453  -1.644
   0.905   3.472  -1.644
   2.883  -0.924  -1.644
   3.080  -0.672  -1.644
   3.245  -0.399  -1.644
   3.376  -0.108  -1.644
   3.471   0.197  -1.644
   3.529   0.510  -1.644
   3.428   0.829  -1.934
   3.408   1.145  -1.934
   3.348   1.456  -1.934
   3.251   1.758  -1.934
   3.116   2.044  -1.934
   2.946   2.312  -1.934
   2.744   2.556  -1.934
   2.513   2.773  -1.934
   2.257   2.959  -1.934
   1.979   3.112  -1.934
   1.685   3.228  -1.934
   1.378   3.307  -1.934
   1.063   3.347  -1.934
   0.747   3.347  -1.934
   0.432   3.307  -1.934
   2.744  -0.898  -1.934
   2.946  -0.654  -1.934
   3.116  -0.386  -1.934
   3.251  -0.100  -1.934
   3.348   0.202  -1.934
   3.408   0.513  -1.934
   3.276   0.829  -2.209
   3.255   1.145  -2.209
   3.192   1.455  -2.209
   3.088   1.755  -2.209
   2.945   2.037  -2.209
   2.766   2.298  -2.209
   2.553   2.533  -2.209
   2.311   2.738  -2.209
   2.044   2.908  -2.209
   1.757   3.041  -2.209
   1.455   3.135  -2.209
   1.142   3.188  -2.209
   0.826   3.199  -2.209
   0.511   3.167  -2.209
   0.203   3.093  -2.209
   2.311  -1.080  -2.209
   2.553  -0.875  -2.209
   2.766  -0.640  -2.209
   2.945  -0.379  -2.209
   3.088  -0.097  -2.209
   3.192   0.203  -2.209
   3.255   0.513  -2.209
   3.094   0.829  -2.465
   3.071   1.148  -2.465
   3.001   1.460  -2.465
   2.887   1.758  -2.465
   2.731   2.037  -2.465
   2.535   2.290  -2.465
   2.305   2.512  -2.465
   2.045   2.698  -2.465
   1.761   2.844  -2.465
   1.459   2.947  -2.465
   1.144   3.005  -2.465
   0.825   3.017  -2.465
   0.507   2.982  -2.465
   0.198   2.901  -2.465
   2.045  -1.040  -2.465
   2.305  -0.854  -2.465
   2.535  -0.632  -2.465
   2.731  -0.379  -2.465
   2.887  -0.100  -2.465
   3.001   0.198  -2.465
   3.071   0.510  -2.465
   2.885   0.829  -2.699
   2.859   1.147  -2.699
   2.783   1.456  -2.699
   2.658   1.749  -2.699
   2.488   2.018  -2.699
   2.277   2.257  -2.699
   2.030   2.458  -2.699
   1.754   2.618  -2.699
   1.456   2.731  -2.699
   1.144   2.794  -2.699
   0.825   2.807  -2.699
   0.509   2.769  -2.699
   1.754  -0.960  -2.699
   2.030  -0.800  -2.699
   2.277  -0.599  -2.699
   2.488  -0.360  -2.699
   2.658  -0.091  -2.699
   2.783   0.202  -2.699
   2.859   0.511  -2.699
   2.651   0.829  -2.908
   2.621   1.150  -2.908
   2.533   1.460  -2.908
   2.389   1.748  -2.908
   2.195   2.005  -2.908
   1.957   2.222  -2.908
   1.683   2.392  -2.908
   1.383   2.508  -2.908
   1.066   2.567  -2.908
   0.744   2.567  -2.908
   0.427   2.508  -2.908
   1.383  -0.850  -2.908
   1.683  -0.734  -2.908
   1.957  -0.564  -2.908
   2.195  -0.347  -2.908
   2.389  -0.090  -2.908
   2.533   0.198  -2.908
   2.621   0.508  -2.908
   2.395   0.829  -3.090
   2.360   1.149  -3.090
   2.257   1.455  -3.090
   2.091   1.731  -3.090
   1.869   1.964  -3.090
   1.603   2.145  -3.090
   1.304   2.264  -3.090
   0.986   2.317  -3.090
   0.664   2.299  -3.090
   0.986  -0.659  -3.090
   1.304  -0.606  -3.090
   1.603  -0.487  -3.090
   1.869  -0.306  -3.090
   2.091  -0.073  -3.090
   2.257   0.203  -3.090
   2.360   0.509  -3.090
   2.120   0.829  -3.242
   2.078   1.143  -3.242
   1.957   1.436  -3.242
   1.764   1.688  -3.242
   1.512   1.881  -3.242
   1.219   2.002  -3.242
   0.905   2.044  -3.242
   0.591   2.002  -3.242
   0.591  -0.344  -3.242
   0.905  -0.386  -3.242
   1.219  -0.344  -3.242
   1.512  -0.223  -3.242
   1.764  -0.030  -3.242
   1.957   0.222  -3.242
   2.078   0.515  -3.242
   1.830   0.829  -3.362
   1.774   1.145  -3.362
   1.613   1.423  -3.362
   1.367   1.630  -3.362
   1.066   1.740  -3.362
   0.744   1.740  -3.362
   0.744  -0.082  -3.362
   1.066  -0.082  -3.362
   1.367   0.028  -3.362
   1.613   0.235  -3.362
   1.774   0.513  -3.362
   1.528   0.829  -3.449
   1.445   1.141  -3.449
   1.217   1.369  -3.449
   0.905   1.452  -3.449
   0.905   0.206  -3.449
   1.217   0.289  -3.449
   1.445   0.517  -3.449
   1.219   0.829  -3.501
   1.062   1.101  -3.501
   0.748   1.101  -3.501
   0.748   0.557  -3.501
   1.062   0.557  -3.501
   0.905   0.829  -3.519
   0.533  -2.457   2.611
   0.842  -2.345   2.611
  -0.255  -2.602   2.488
   0.046  -2.727   2.488
   0.368  -2.769   2.488
   0.690  -2.727   2.488
   0.991  -2.602   2.488
   1.249  -2.405   2.488
   1.446  -2.147   2.488
  -0.741  -2.574   2.332
  -0.489  -2.788   2.332
  -0.197  -2.942   2.332
   0.121  -3.031   2.332
   0.451  -3.049   2.332
   0.776  -2.995   2.332
   1.083  -2.873   2.332
   1.357  -2.688   2.332
   1.584  -2.448   2.332
   1.754  -2.165   2.332
   1.859  -1.852   2.332
   2.157  -1.524   2.146
  -1.153  -2.466   2.146
  -0.954  -2.730   2.146
  -0.710  -2.952   2.146
  -0.430  -3.126   2.146
  -0.122  -3.245   2.146
   0.203  -3.306   2.146
   0.533  -3.306   2.146
   0.858  -3.245   2.146
   1.166  -3.126   2.146
   1.446  -2.952   2.146
   1.690  -2.730   2.146
   1.889  -2.466   2.146
   2.037  -2.170   2.146
   2.127  -1.853   2.146
   2.397  -1.524   1.931
   2.371  -1.198   1.931
  -1.499  -2.319   1.931
  -1.347  -2.609   1.931
  -1.151  -2.870   1.931
  -0.915  -3.096   1.931
  -0.647  -3.282   1.931
  -0.352  -3.422   1.931
  -0.038  -3.512   1.931
   0.286  -3.552   1.931
   0.613  -3.539   1.931
   0.933  -3.473   1.931
   1.238  -3.357   1.931
   1.521  -3.194   1.931
   1.774  -2.988   1.931
   1.990  -2.743   1.931
   2.165  -2.467   1.931
   2.293  -2.167   1.931
   2.371  -1.850   1.931
   2.612  -1.524   1.691
   2.588  -1.197   1.691
  -1.728  -2.326   1.691
  -1.589  -2.622   1.691
  -1.408  -2.895   1.691
  -1.189  -3.139   1.691
  -0.938  -3.349   1.691
  -0.658  -3.520   1.691
  -0.357  -3.648   1.691
  -0.040  -3.731   1.691
   0.286  -3.766   1.691
   0.613  -3.754   1.691
   0.936  -3.695   1.691
   1.246  -3.589   1.691
   1.537  -3.439   1.691
   1.803  -3.249   1.691
   2.039  -3.021   1.691
   2.239  -2.762   1.691
   2.400  -2.476   1.691
   2.517  -2.170   1.691
   2.588  -1.851   1.691
   2.798  -1.524   1.429
   2.776  -1.200   1.429
  -1.928  -2.321   1.429
  -1.801  -2.620   1.429
  -1.635  -2.899   1.429
  -1.434  -3.154   1.429
  -1.201  -3.380   1.429
  -0.940  -3.572   1.429
  -0.655  -3.728   1.429
  -0.352  -3.845   1.429
  -0.036  -3.920   1.429
   0.287  -3.953   1.429
   0.611  -3.942   1.429
   0.931  -3.888   1.429
   1.241  -3.792   1.429
   1.536  -3.655   1.429
   1.809  -3.480   1.429
   2.057  -3.271   1.429
   2.275  -3.030   1.429
   2.459  -2.762   1.429
   2.605  -2.473   1.429
   2.712  -2.166   1.429
   2.776  -1.848   1.429
   2.954  -1.524   1.147
   2.933  -1.200   1.147
  -2.036  -2.476   1.147
  -1.898  -2.770   1.147
  -1.724  -3.044   1.147
  -1.517  -3.294   1.147
  -1.280  -3.516   1.147
  -1.018  -3.707   1.147
  -0.733  -3.864   1.147
  -0.431  -3.983   1.147
  -0.117  -4.064   1.147
   0.206  -4.105   1.147
   0.530  -4.105   1.147
   0.853  -4.064   1.147
   1.167  -3.983   1.147
   1.469  -3.864   1.147
   1.754  -3.707   1.147
   2.016  -3.516   1.147
   2.253  -3.294   1.147
   2.460  -3.044   1.147
   2.634  -2.770   1.147
   2.772  -2.476   1.147
   2.873  -2.167   1.147
   2.933  -1.848   1.147
   3.077  -1.524   0.850
   3.057  -1.197   0.850
  -2.165  -2.485   0.850
  -2.031  -2.783   0.850
  -1.861  -3.063   0.850
  -1.660  -3.320   0.850
  -1.428  -3.552   0.850
  -1.171  -3.753   0.850
  -0.891  -3.923   0.850
  -0.593  -4.057   0.850
  -0.280  -4.154   0.850
   0.041  -4.213   0.850
   0.368  -4.233   0.850
   0.695  -4.213   0.850
   1.016  -4.154   0.850
   1.329  -4.057   0.850
   1.627  -3.923   0.850
   1.907  -3.753   0.850
   2.164  -3.552   0.850
   2.396  -3.320   0.850
   2.597  -3.063   0.850
   2.767  -2.783   0.850
   2.901  -2.485   0.850
   2.998  -2.172   0.850
   3.057  -1.851   0.850
   3.166  -1.524   0.541
   3.147  -1.199   0.541
   3.091  -0.879   0.541
  -2.132  -2.780   0.541
  -1.970  -3.062   0.541
  -1.775  -3.323   0.541
  -1.552  -3.559   0.541
  -1.303  -3.768   0.541
  -1.031  -3.947   0.541
  -0.740  -4.093   0.541
  -0.434  -4.204   0.541
  -0.118  -4.280   0.541
   0.205  -4.317   0.541
   0.531  -4.317   0.541
   0.854  -4.280   0.541
   1.170  -4.204   0.541
   1.476  -4.093   0.541
   1.767  -3.947   0.541
   2.039  -3.768   0.541
   2.288  -3.559   0.541
   2.511  -3.323   0.541
   2.706  -3.062   0.541
   2.868  -2.780   0.541
   2.997  -2.481   0.541
   3.091  -2.169   0.541
   3.147  -1.849   0.541
   3.220  -1.524   0.223
   3.201  -1.199   0.223
   3.146  -0.878   0.223
  -2.115  -2.926   0.223
  -1.939  -3.200   0.223
  -1.733  -3.452   0.223
  -1.500  -3.679   0.223
  -1.242  -3.878   0.223
  -0.963  -4.046   0.223
  -0.667  -4.182   0.223
  -0.357  -4.282   0.223
  -0.038  -4.347   0.223
   0.287  -4.375   0.223
   0.612  -4.365   0.223
   0.934  -4.319   0.223
   1.249  -4.236   0.223
   1.553  -4.118   0.223
   1.841  -3.966   0.223
   2.110  -3.782   0.223
   2.356  -3.569   0.223
   2.576  -3.329   0.223
   2.767  -3.066   0.223
   2.927  -2.782   0.223
   3.054  -2.482   0.223
   3.146  -2.170   0.223
   3.201  -1.849   0.223
   3.238  -1.524  -0.098
   3.220  -1.203  -0.098
   3.166  -0.885  -0.098
  -2.062  -3.051  -0.098
  -1.876  -3.313  -0.098
  -1.661  -3.553  -0.098
  -1.421  -3.768  -0.098
  -1.159  -3.954  -0.098
  -0.877  -4.110  -0.098
  -0.580  -4.233  -0.098
  -0.271  -4.322  -0.098
   0.047  -4.376  -0.098
   0.368  -4.394  -0.098
   0.689  -4.376  -0.098
   1.007  -4.322  -0.098
   1.316  -4.233  -0.098
   1.613  -4.110  -0.098
   1.895  -3.954  -0.098
   2.157  -3.768  -0.098
   2.397  -3.553  -0.098
   2.612  -3.313  -0.098
   2.798  -3.051  -0.098
   2.954  -2.769  -0.098
   3.077  -2.472  -0.098
   3.166  -2.163  -0.098
   3.220  -1.845  -0.098
   3.220  -1.524  -0.419
   3.201  -1.199  -0.419
   3.146  -0.878  -0.419
  -2.115  -2.926  -0.419
  -1.939  -3.200  -0.419
  -1.733  -3.452  -0.419
  -1.500  -3.679  -0.419
  -1.242  -3.878  -0.419
  -0.963  -4.046  -0.419
  -0.667  -4.182  -0.419
  -0.357  -4.282  -0.419
  -0.038  -4.347  -0.419
   0.287  -4.375  -0.419
   0.612  -4.365  -0.419
   0.934  -4.319  -0.419
   1.249  -4.236  -0.419
   1.553  -4.118  -0.419
   1.841  -3.966  -0.419
   2.110  -3.782  -0.419
   2.356  -3.569  -0.419
   2.576  -3.329  -0.419
   2.767  -3.066  -0.419
   2.927  -2.782  -0.419
   3.054  -2.482  -0.419
   3.146  -2.170  -0.419
   3.201  -1.849  -0.419
   3.166  -1.524  -0.737
   3.147  -1.199  -0.737
  -1.970  -3.062  -0.737
  -1.775  -3.323  -0.737
  -1.552  -3.559  -0.737
  -1.303  -3.768  -0.737
  -1.031  -3.947  -0.737
  -0.740  -4.093  -0.737
  -0.434  -4.204  -0.737
  -0.118  -4.280  -0.737
   0.205  -4.317  -0.737
   0.531  -4.317  -0.737
   0.854  -4.280  -0.737
   1.170  -4.205  -0.737
   1.476  -4.093  -0.737
   1.767  -3.947  -0.737
   2.039  -3.768  -0.737
   2.288  -3.559  -0.737
   2.511  -3.323  -0.737
   2.706  -3.062  -0.737
   2.868  -2.780  -0.737
   2.997  -2.481  -0.737
   3.091  -2.169  -0.737
   3.147  -1.849  -0.737
   3.077  -1.524  -1.046
   3.057  -1.197  -1.046
  -1.861  -3.063  -1.046
  -1.660  -3.320  -1.046
  -1.428  -3.552  -1.046
  -1.171  -3.753  -1.046
  -0.891  -3.923  -1.046
  -0.593  -4.057  -1.046
  -0.280  -4.154  -1.046
   0.041  -4.213  -1.046
   0.368  -4.233  -1.046
   0.695  -4.213  -1.046
   1.016  -4.154  -1.046
   1.329  -4.057  -1.046
   1.627  -3.923  -1.046
   1.907  -3.753  -1.046
   2.164  -3.552  -1.046
   2.396  -3.320  -1.046
   2.597  -3.063  -1.046
   2.767  -2.783  -1.046
   2.901  -2.485  -1.046
   2.998  -2.172  -1.046
   3.057  -1.851  -1.046
   2.954  -1.524  -1.343
   2.933  -1.200  -1.343
  -1.724  -3.044  -1.343
  -1.517  -3.294  -1.343
  -1.280  -3.516  -1.343
  -1.018  -3.707  -1.343
  -0.733  -3.864  -1.343
  -0.431  -3.983  -1.343
  -0.117  -4.064  -1.343
   0.206  -4.105  -1.343
   0.530  -4.105  -1.343
   0.853  -4.064  -1.343
   1.167  -3.983  -1.343
   1.469  -3.864  -1.343
   1.754  -3.707  -1.343
   2.016  -3.516  -1.343
   2.253  -3.294  -1.343
   2.460  -3.044  -1.343
   2.634  -2.770  -1.343
   2.772  -2.476  -1.343
   2.873  -2.167  -1.343
   2.933  -1.848  -1.343
   2.798  -1.524  -1.625
   2.776  -1.200  -1.625
  -1.635  -2.899  -1.625
  -1.434  -3.154  -1.625
  -1.201  -3.380  -1.625
  -0.940  -3.572  -1.625
  -0.655  -3.728  -1.625
  -0.352  -3.845  -1.625
  -0.036  -3.920  -1.625
   0.287  -3.953  -1.625
   0.611  -3.942  -1.625
   0.931  -3.888  -1.625
   1.241  -3.792  -1.625
   1.536  -3.655  -1.625
   1.809  -3.480  -1.625
   2.057  -3.271  -1.625
   2.275  -3.030  -1.625
   2.459  -2.762  -1.625
   2.605  -2.473  -1.625
   2.712  -2.166  -1.625
   2.776  -1.848  -1.625
   2.612  -1.524  -1.887
   2.588  -1.197  -1.887
  -1.408  -2.895  -1.887
  -1.189  -3.139  -1.887
  -0.938  -3.349  -1.887
  -0.658  -3.520  -1.887
  -0.357  -3.648  -1.887
  -0.040  -3.731  -1.887
   0.286  -3.766  -1.887
   0.613  -3.754  -1.887
   0.936  -3.695  -1.887
   1.246  -3.589  -1.887
   1.537  -3.439  -1.887
   1.803  -3.249  -1.887
   2.039  -3.021  -1.887
   2.239  -2.762  -1.887
   2.400  -2.476  -1.887
   2.517  -2.170  -1.887
   2.588  -1.851  -1.887
   2.397  -1.524  -2.127
   2.371  -1.198  -2.127
  -1.347  -2.609  -2.127
  -1.151  -2.870  -2.127
  -0.915  -3.096  -2.127
  -0.647  -3.282  -2.127
  -0.352  -3.422  -2.127
  -0.038  -3.512  -2.127
   0.286  -3.552  -2.127
   0.613  -3.539  -2.127
   0.933  -3.473  -2.127
   1.238  -3.357  -2.127
   1.521  -3.194  -2.127
   1.774  -2.988  -2.127
   1.990  -2.743  -2.127
   2.165  -2.467  -2.127
   2.293  -2.167  -2.127
   2.371  -1.850  -2.127
   2.157  -1.524  -2.342
   2.127  -1.195  -2.342
  -1.153  -2.466  -2.342
  -0.954  -2.730  -2.342
  -0.710  -2.952  -2.342
  -0.430  -3.126  -2.342
  -0.122  -3.245  -2.342
   0.203  -3.306  -2.342
   0.533  -3.306  -2.342
   0.858  -3.245  -2.342
   1.166  -3.126  -2.342
   1.446  -2.952  -2.342
   1.690  -2.730  -2.342
   1.889  -2.466  -2.342
   2.037  -2.170  -2.342
   2.127  -1.853  -2.342
   1.895  -1.524  -2.528
   1.859  -1.196  -2.528
  -0.940  -2.311  -2.528
  -0.741  -2.574  -2.528
  -0.489  -2.788  -2.528
  -0.197  -2.942  -2.528
   0.121  -3.031  -2.528
   0.451  -3.049  -2.528
   0.776  -2.995  -2.528
   1.083  -2.873  -2.528
   1.357  -2.688  -2.528
   1.584  -2.448  -2.528
   1.754  -2.165  -2.528
   1.859  -1.852  -2.528
   1.613  -1.524  -2.684
   1.571  -1.202  -2.684
  -0.710  -2.147  -2.684
  -0.513  -2.405  -2.684
  -0.255  -2.602  -2.684
   0.046  -2.727  -2.684
   0.368  -2.769  -2.684
   0.690  -2.727  -2.684
   0.991  -2.602  -2.684
   1.249  -2.405  -2.684
   1.446  -2.147  -2.684
   1.571  -1.846  -2.684
   1.316  -1.524  -2.807
   1.259  -1.200  -2.807
  -0.523  -1.848  -2.807
  -0.358  -2.133  -2.807
  -0.106  -2.345  -2.807
   0.203  -2.458  -2.807
   0.533  -2.458  -2.807
   0.842  -2.345  -2.807
   1.094  -2.133  -2.807
   1.259  -1.848  -2.807
   1.007  -1.524  -2.896
  -0.185  -1.843  -2.896
   0.049  -2.077  -2.896
   0.368  -2.163  -2.896
   0.687  -2.077  -2.896
   0.921  -1.843  -2.896
   0.689  -1.524  -2.950
   0.047  -1.524  -2.950
   0.207  -1.802  -2.950
   0.529  -1.802  -2.950
   0.368  -1.524  -2.968
  -2.961   0.005   1.768
  -2.961  -0.317   1.768
  -2.892  -0.632   1.768
  -2.756  -0.924   1.768
  -3.108   0.475   1.586
  -3.196   0.165   1.586
  -3.226  -0.156   1.586
  -3.196  -0.477   1.586
  -3.108  -0.787   1.586
  -2.964  -1.075   1.586
  -2.770  -1.332   1.586
  -2.532  -1.549   1.586
  -3.453   0.003   1.377
  -3.453  -0.315   1.377
  -3.402  -0.630   1.377
  -3.301  -0.932   1.377
  -3.153  -1.214   1.377
  -2.962  -1.469   1.377
  -2.732  -1.690   1.377
  -2.470  -1.871   1.377
  -3.663  -0.316   1.143
  -3.617  -0.632   1.143
  -3.525  -0.938   1.143
  -3.389  -1.227   1.143
  -3.213  -1.494   1.143
  -2.999  -1.732   1.143
  -2.754  -1.936   1.143
  -2.481  -2.103   1.143
  -3.803  -0.628   0.887
  -3.720  -0.934   0.887
  -3.596  -1.225   0.887
  -3.435  -1.498   0.887
  -3.238  -1.746   0.887
  -3.011  -1.966   0.887
  -2.756  -2.154   0.887
  -2.478  -2.307   0.887
  -2.182  -2.420   0.887
  -3.923  -0.783   0.612
  -3.826  -1.085   0.612
  -3.691  -1.371   0.612
  -3.521  -1.639   0.612
  -3.319  -1.883   0.612
  -3.088  -2.100   0.612
  -2.832  -2.286   0.612
  -2.554  -2.439   0.612
  -2.260  -2.555   0.612
  -3.820  -1.384   0.322
  -3.655  -1.657   0.322
  -3.458  -1.909   0.322
  -3.233  -2.134   0.322
  -2.981  -2.331   0.322
  -2.708  -2.496   0.322
  -2.417  -2.627   0.322
  -3.761  -1.656   0.020
  -3.571  -1.911   0.020
  -3.353  -2.142   0.020
  -3.110  -2.346   0.020
  -2.845  -2.520   0.020
  -2.561  -2.663   0.020
  -2.263  -2.771   0.020
  -3.731  -1.791  -0.289
  -3.530  -2.037  -0.289
  -3.302  -2.259  -0.289
  -3.051  -2.453  -0.289
  -2.778  -2.617  -0.289
  -2.489  -2.749  -0.289
  -2.187  -2.847  -0.289
  -3.460  -2.136  -0.603
  -3.226  -2.345  -0.603
  -2.970  -2.527  -0.603
  -2.695  -2.679  -0.603
  -2.405  -2.799  -0.603
  -3.530  -2.037  -0.916
  -3.302  -2.259  -0.916
  -3.051  -2.453  -0.916
  -2.778  -2.617  -0.916
  -2.489  -2.749  -0.916
  -2.187  -2.847  -0.916
  -3.353  -2.142  -1.226
  -3.110  -2.346  -1.226
  -2.845  -2.520  -1.226
  -2.561  -2.663  -1.226
  -2.263  -2.771  -1.226
  -1.954  -2.844  -1.226
  -2.981  -2.331  -1.528
  -2.708  -2.496  -1.528
  -2.417  -2.627  -1.528
  -2.112  -2.722  -1.528
  -1.799  -2.780  -1.528
  -2.832  -2.286  -1.818
  -2.554  -2.439  -1.818
  -2.260  -2.555  -1.818
  -1.953  -2.634  -1.818
  -1.638  -2.674  -1.818
  -2.756  -2.154  -2.093
  -2.478  -2.307  -2.093
  -2.182  -2.420  -2.093
  -1.874  -2.494  -2.093
  -1.559  -2.526  -2.093
  -2.481  -2.103  -2.349
  -2.187  -2.228  -2.349
  -1.878  -2.309  -2.349
  -1.560  -2.344  -2.349
  -1.241  -2.332  -2.349
  -2.182  -2.007  -2.583
  -1.876  -2.096  -2.583
  -1.560  -2.134  -2.583
  -1.241  -2.121  -2.583
  -1.641  -1.894  -2.792
  -1.319  -1.894  -2.792
  -1.002  -1.835  -2.792
  -0.702  -1.719  -2.792
  -1.081  -1.591  -2.974
  -0.782  -1.472  -2.974
  -3.176   0.856   1.549
  -3.497   0.856   1.416
  -3.451   0.508   1.416
  -3.792   1.034   1.248
  -3.792   0.678   1.248
  -3.715   0.329   1.248
  -4.052   1.211   1.047
  -4.085   0.856   1.047
  -4.052   0.501   1.047
  -3.954   0.158   1.047
  -3.795  -0.161   1.047
  -4.280   1.381   0.815
  -4.337   1.032   0.815
  -4.337   0.680   0.815
  -4.280   0.331   0.815
  -4.169  -0.003   0.815
  -4.005  -0.316   0.815
  -4.416   1.722   0.556
  -4.518   1.383   0.556
  -4.569   1.033   0.556
  -4.632   1.717   0.272
  -4.749   1.884  -0.032
  -4.743   2.216  -0.353
  -4.677   2.517  -0.687
  -4.644   2.667  -1.030
  -4.834   2.371  -1.030
  -4.576   2.789  -1.377
  -4.777   2.505  -1.377
  -4.169   3.184  -1.724
  -4.422   2.939  -1.724
  -4.644   2.667  -1.724
  -3.957   3.280  -2.067
  -4.226   3.054  -2.067
  -4.467   2.799  -2.067
  -4.677   2.517  -2.067
  -0.792   3.447  -2.401
  -1.114   3.592  -2.401
  -3.190   3.592  -2.401
  -3.512   3.447  -2.401
  -3.814   3.264  -2.401
  -4.092   3.046  -2.401
  -4.342   2.796  -2.401
  -4.560   2.518  -2.401
  -2.852  -1.985  -2.401
  -2.505  -2.049  -2.401
  -1.629   3.600  -2.722
  -1.977   3.643  -2.722
  -2.327   3.643  -2.722
  -2.675   3.600  -2.722
  -3.015   3.512  -2.722
  -3.341   3.383  -2.722
  -3.649   3.214  -2.722
  -3.932   3.008  -2.722
  -4.188   2.768  -2.722
  -4.412   2.498  -2.722
  -2.675  -1.888  -2.722
  -2.327  -1.931  -2.722
  -1.977  -1.931  -2.722
  -1.889   3.468  -3.026
  -2.240   3.479  -3.026
  -2.589   3.444  -3.026
  -2.930   3.363  -3.026
  -3.257   3.237  -3.026
  -3.564   3.068  -3.026
  -3.847   2.860  -3.026
  -4.099   2.617  -3.026
  -4.316   2.342  -3.026
  -2.589  -1.732  -3.026
  -2.240  -1.767  -3.026
  -1.889  -1.756  -3.026
  -1.544  -1.697  -3.026
  -1.209  -1.593  -3.026
  -0.891  -1.446  -3.026
  -2.592   3.239  -3.310
  -2.935   3.150  -3.310
  -3.260   3.011  -3.310
  -3.562   2.827  -3.310
  -3.834   2.601  -3.310
  -4.070   2.337  -3.310
  -4.266   2.042  -3.310
  -2.592  -1.527  -3.310
  -2.241  -1.566  -3.310
  -1.887  -1.553  -3.310
  -1.539  -1.489  -3.310
  -2.929   2.906  -3.569
  -3.248   2.754  -3.569
  -3.538   2.554  -3.569
  -3.793   2.310  -3.569
  -4.005   2.028  -3.569
  -2.929  -1.194  -3.569
  -2.590  -1.292  -3.569
  -2.240  -1.334  -3.569
  -1.888  -1.320  -3.569
  -3.317   2.398  -3.801
  -3.580   2.158  -3.801
  -3.795   1.874  -3.801
  -3.954   1.554  -3.801
  -3.014  -0.874  -3.801
  -2.681  -1.003  -3.801
  -2.330  -1.069  -3.801
  -3.349   1.990  -4.002
  -3.565   1.706  -4.002
  -3.715   1.383  -4.002
  -3.078  -0.509  -4.002
  -2.762  -0.676  -4.002
  -3.451   1.204  -4.170
  -3.497   0.856  -4.170
  -3.451   0.508  -4.170
  -3.317   0.183  -4.170
  -4.195   1.929   0.812
  -4.325   2.220   0.574
  -4.365   1.928   0.574
  -4.437   2.364   0.319
  -4.492   2.075   0.319
  -4.463   2.651   0.050
  -4.551   2.368   0.050
  -4.286   3.174  -0.230
  -4.433   2.919  -0.230
  -4.550   2.648  -0.230
  -4.634   2.366  -0.230
  -4.258   3.300  -0.518
  -4.418   3.051  -0.518
  -4.548   2.787  -0.518
  -4.647   2.509  -0.518
  -4.006   3.619  -0.809
  -4.201   3.402  -0.809
  -4.369   3.164  -0.809
  -4.511   2.909  -0.809
  -3.626   3.914  -1.100
  -3.860   3.734  -1.100
  -4.071   3.528  -1.100
  -4.258   3.300  -1.100
  -4.418   3.051  -1.100
  -3.435   3.976  -1.388
  -3.682   3.814  -1.388
  -3.907   3.625  -1.388
  -4.110   3.410  -1.388
  -4.286   3.174  -1.388
  -3.038   4.076  -1.668
  -3.308   3.954  -1.668
  -3.562   3.801  -1.668
  -3.795   3.618  -1.668
  -4.005   3.408  -1.668
  -2.607   4.082  -1.937
  -2.892   4.009  -1.937
  -3.165   3.901  -1.937
  -3.423   3.759  -1.937
  -3.661   3.586  -1.937
  -3.876   3.385  -1.937
  -2.242   3.981  -2.192
  -2.534   3.952  -2.192
  -2.820   3.884  -2.192
  -3.095   3.778  -2.192
  -3.353   3.637  -2.192
  -1.654   3.748  -2.430
  -1.946   3.802  -2.430
  -2.242   3.812  -2.430
  -2.537   3.780  -2.430
  -2.824   3.705  -2.430
  -0.010   3.004  -2.320
  -0.248   3.172  -2.320
  -0.503   3.314  -2.320