 $system timlim=999888777
         mwords=100 $end
 $contrl exetyp=run
         runtyp=energy scftyp=rhf
         icharg=-1 mult=1 units=angs coord=unique
         maxit=50 ispher=1 qmttol=1d-6 icut=12 itol=22 $end
 $scf    dirscf=.t. diis=.t. soscf=.f.
         fdiff=.f. conv=1d-6
         npreo(1)=0,-1,1,9999 $end
 $elpot  iepot=1 where=points $end
 $basis  gbasis=n311 ngauss=6
         ndfunc=1 npfunc=1 diffsp=.t. diffs=.t. $end
 $DATA
TS1a_hfd_irc200_all_revmov.pdb
C1
P     15.0    -0.04800  -0.01800  -0.01400 
O      8.0    -0.12400   0.03000   1.54000 
O      8.0     0.90600   0.84000  -0.69000 
F      9.0     0.37100  -1.52800  -0.14900 
O      8.0    -1.48100  -0.15400  -0.60400 
C      6.0    -2.15200   0.85600  -1.37700 
H      1.0    -2.18100   1.77300  -0.79800 
H      1.0    -1.62200   0.98700  -2.31200 
H      1.0    -3.13600   0.45100  -1.56900 
C      6.0     0.20300   1.17500   2.34600 
H      1.0    -0.01600   0.87200   3.36100 
H      1.0     1.26200   1.37900   2.24500 
H      1.0    -0.40100   2.01400   2.01700 
O      8.0    -1.52900   2.88200   0.67500 
H      1.0    -1.01200   3.57900   0.28900 
 $END
 $POINTS
ANGS 3068
   2.524  -1.109   1.742
  -2.215  -2.053   1.418
  -1.943  -2.309   1.418
   2.832  -0.757   1.418
  -2.114  -2.349   1.076
   2.976  -0.763   1.076
   3.044  -0.393   1.076
   3.169  -0.018   0.720
   3.083  -0.760   0.720
   3.148  -0.392   0.720
   3.146  -0.761   0.355
   3.210  -0.392   0.355
   3.169  -0.752  -0.014
  -0.419  -1.401  -2.987
  -0.048  -1.450  -2.987
   0.964  -1.030  -2.987
  -0.237  -1.091  -3.129
   0.141  -1.091  -3.129
   0.497  -0.962  -3.129
   0.787  -0.719  -3.129
   0.319  -0.654  -3.231
   0.588  -0.385  -3.231
  -0.602  -1.649   3.729
  -0.285  -1.708   3.729
   0.037  -1.708   3.729
  -1.797  -1.028   3.520
  -1.606  -1.283   3.520
  -1.376  -1.504   3.520
  -1.114  -1.685   3.520
  -0.826  -1.821   3.520
  -0.520  -1.910   3.520
  -0.204  -1.948   3.520
   0.115  -1.935   3.520
   0.427  -1.872   3.520
   0.725  -1.759   3.520
   1.001  -1.599   3.520
  -2.169  -0.752   3.286
  -2.033  -1.041   3.286
  -1.857  -1.308   3.286
  -1.643  -1.546   3.286
  -1.398  -1.750   3.286
  -1.125  -1.917   3.286
  -0.831  -2.042   3.286
  -0.522  -2.123   3.286
  -0.204  -2.158   3.286
   0.115  -2.146   3.286
   0.430  -2.088   3.286
   0.732  -1.985   3.286
   1.016  -1.839   3.286
   1.276  -1.653   3.286
  -2.447  -0.442   3.030
  -2.364  -0.748   3.030
  -2.240  -1.039   3.030
  -2.079  -1.312   3.030
  -1.882  -1.560   3.030
  -1.655  -1.780   3.030
  -1.400  -1.968   3.030
  -1.122  -2.121   3.030
  -0.826  -2.234   3.030
  -0.518  -2.308   3.030
  -0.203  -2.340   3.030
   0.113  -2.329   3.030
   0.426  -2.276   3.030
   0.728  -2.182   3.030
   1.015  -2.049   3.030
   1.282  -1.879   3.030
   1.524  -1.674   3.030
   1.737  -1.439   3.030
  -2.627  -0.286   2.755
  -2.567  -0.597   2.755
  -2.470  -0.899   2.755
  -2.335  -1.185   2.755
  -2.165  -1.453   2.755
  -1.963  -1.697   2.755
  -1.732  -1.914   2.755
  -1.476  -2.100   2.755
  -1.198  -2.253   2.755
  -0.904  -2.369   2.755
  -0.597  -2.448   2.755
  -0.282  -2.488   2.755
   0.034  -2.488   2.755
   0.349  -2.448   2.755
   0.656  -2.369   2.755
   0.950  -2.253   2.755
   1.228  -2.100   2.755
   1.484  -1.914   2.755
   1.715  -1.697   2.755
   1.917  -1.453   2.755
  -2.767   0.030   2.465
  -2.748  -0.289   2.465
  -2.690  -0.602   2.465
  -2.595  -0.907   2.465
  -2.464  -1.198   2.465
  -2.299  -1.471   2.465
  -2.102  -1.723   2.465
  -1.877  -1.948   2.465
  -1.625  -2.145   2.465
  -1.352  -2.310   2.465
  -1.061  -2.441   2.465
  -0.756  -2.536   2.465
  -0.443  -2.594   2.465
  -0.124  -2.613   2.465
   1.629  -1.948   2.465
   1.854  -1.723   2.465
   2.051  -1.471   2.465
   2.216  -1.198   2.465
  -2.835   0.347   2.163
  -2.854   0.030   2.163
  -2.835  -0.287   2.163
  -2.780  -0.600   2.163
  -2.689  -0.904   2.163
  -2.563  -1.195   2.163
  -2.405  -1.470   2.163
  -2.215  -1.725   2.163
  -1.997  -1.956   2.163
  -1.754  -2.160   2.163
  -1.489  -2.334   2.163
  -1.205  -2.477   2.163
   2.157  -1.470   2.163
   2.315  -1.195   2.163
  -2.866   0.504   1.854
  -2.902   0.189   1.854
  -2.902  -0.129   1.854
  -2.866  -0.444   1.854
  -2.794  -0.754   1.854
  -2.687  -1.053   1.854
  -2.547  -1.338   1.854
  -2.375  -1.605   1.854
  -2.174  -1.851   1.854
  -1.946  -2.073   1.854
  -1.695  -2.267   1.854
   3.193   0.214   0.800
   3.256   0.524   0.800
   3.429   0.840   0.525
   3.409   1.156   0.525
   3.349   1.467   0.525
   3.252   1.769   0.525
   3.117   2.055   0.525
   3.252  -0.089   0.525
   3.349   0.213   0.525
   3.409   0.524   0.525
   3.549   0.840   0.235
   3.530   1.159   0.235
   3.472   1.472   0.235
   3.377   1.777   0.235
   3.246   2.068   0.235
   3.081   2.341   0.235
   2.884   2.593   0.235
   2.659   2.818   0.235
   2.407   3.015   0.235
   2.134   3.180   0.235
   1.843   3.311   0.235
   3.246  -0.388   0.235
   3.377  -0.097   0.235
   3.472   0.208   0.235
   3.530   0.521   0.235
   3.636   0.840  -0.067
   3.617   1.157  -0.067
   3.562   1.470  -0.067
   3.471   1.774  -0.067
   3.345   2.065  -0.067
   3.187   2.340  -0.067
   2.997   2.595  -0.067
   2.779   2.826  -0.067
   2.536   3.030  -0.067
   2.271   3.204  -0.067
   1.987   3.347  -0.067
   1.689   3.455  -0.067
   3.345  -0.385  -0.067
   3.471  -0.094  -0.067
   3.562   0.210  -0.067
   3.617   0.523  -0.067
   3.688   0.840  -0.376
   3.670   1.157  -0.376
   3.616   1.470  -0.376
   3.527   1.775  -0.376
   3.403   2.068  -0.376
   3.247   2.344  -0.376
   3.060   2.601  -0.376
   2.845   2.835  -0.376
   2.605   3.043  -0.376
   2.343   3.223  -0.376
   2.062   3.371  -0.376
   1.766   3.486  -0.376
   3.247  -0.664  -0.376
   3.403  -0.388  -0.376
   3.527  -0.095  -0.376
   3.616   0.210  -0.376
   3.670   0.523  -0.376
   3.706   0.840  -0.690
   3.688   1.154  -0.690
   3.636   1.463  -0.690
   3.549   1.765  -0.690
   3.429   2.055  -0.690
   3.277   2.330  -0.690
   3.095   2.586  -0.690
   2.886   2.820  -0.690
   2.652   3.029  -0.690
   2.396   3.211  -0.690
   2.121   3.363  -0.690
   1.831   3.483  -0.690
   1.529   3.570  -0.690
   3.277  -0.650  -0.690
   3.429  -0.375  -0.690
   3.549  -0.085  -0.690
   3.636   0.217  -0.690
   3.688   0.526  -0.690
   3.688   0.840  -1.003
   3.670   1.157  -1.003
   3.616   1.470  -1.003
   3.527   1.775  -1.003
   3.403   2.068  -1.003
   3.247   2.344  -1.003
   3.060   2.601  -1.003
   2.845   2.835  -1.003
   2.605   3.043  -1.003
   2.343   3.223  -1.003
   2.062   3.371  -1.003
   1.766   3.486  -1.003
   1.459   3.567  -1.003
   3.060  -0.921  -1.003
   3.247  -0.664  -1.003
   3.403  -0.388  -1.003
   3.527  -0.095  -1.003
   3.616   0.210  -1.003
   3.670   0.523  -1.003
   3.636   0.840  -1.313
   3.617   1.157  -1.313
   3.562   1.470  -1.313
   3.471   1.774  -1.313
   3.345   2.065  -1.313
   3.187   2.340  -1.313
   2.997   2.595  -1.313
   2.779   2.826  -1.313
   2.536   3.030  -1.313
   2.271   3.204  -1.313
   1.987   3.347  -1.313
   1.689   3.455  -1.313
   1.380   3.528  -1.313
   1.065   3.565  -1.313
   2.997  -0.915  -1.313
   3.187  -0.660  -1.313
   3.345  -0.385  -1.313
   3.471  -0.094  -1.313
   3.562   0.210  -1.313
   3.617   0.523  -1.313
   3.549   0.840  -1.615
   3.530   1.159  -1.615
   3.472   1.472  -1.615
   3.377   1.777  -1.615
   3.246   2.068  -1.615
   3.081   2.341  -1.615
   2.884   2.593  -1.615
   2.659   2.818  -1.615
   2.407   3.015  -1.615
   2.134   3.180  -1.615
   1.843   3.311  -1.615
   1.538   3.406  -1.615
   1.225   3.464  -1.615
   0.906   3.483  -1.615
   2.884  -0.913  -1.615
   3.081  -0.661  -1.615
   3.246  -0.388  -1.615
   3.377  -0.097  -1.615
   3.472   0.208  -1.615
   3.530   0.521  -1.615
   3.429   0.840  -1.905
   3.409   1.156  -1.905
   3.349   1.467  -1.905
   3.252   1.769  -1.905
   3.117   2.055  -1.905
   2.947   2.323  -1.905
   2.745   2.567  -1.905
   2.514   2.784  -1.905
   2.258   2.970  -1.905
   1.980   3.123  -1.905
   1.686   3.239  -1.905
   1.379   3.318  -1.905
   1.064   3.358  -1.905
   0.748   3.358  -1.905
   0.433   3.318  -1.905
   2.745  -0.887  -1.905
   2.947  -0.643  -1.905
   3.117  -0.375  -1.905
   3.252  -0.089  -1.905
   3.349   0.213  -1.905
   3.409   0.524  -1.905
   3.277   0.840  -2.180
   3.256   1.156  -2.180
   3.193   1.466  -2.180
   3.089   1.766  -2.180
   2.946   2.048  -2.180
   2.767   2.309  -2.180
   2.554   2.544  -2.180
   2.312   2.749  -2.180
   2.045   2.919  -2.180
   1.758   3.052  -2.180
   1.456   3.146  -2.180
   1.143   3.199  -2.180
   0.827   3.210  -2.180
   0.512   3.178  -2.180
   0.204   3.104  -2.180
   2.554  -0.864  -2.180
   2.767  -0.629  -2.180
   2.946  -0.368  -2.180
   3.089  -0.086  -2.180
   3.193   0.214  -2.180
   3.256   0.524  -2.180
   3.095   0.840  -2.436
   3.072   1.159  -2.436
   3.002   1.471  -2.436
   2.888   1.769  -2.436
   2.732   2.048  -2.436
   2.536   2.301  -2.436
   2.306   2.523  -2.436
   2.046   2.709  -2.436
   1.762   2.855  -2.436
   1.460   2.958  -2.436
   1.145   3.016  -2.436
   0.826   3.028  -2.436
   0.508   2.993  -2.436
   0.199   2.912  -2.436
   2.046  -1.029  -2.436
   2.306  -0.843  -2.436
   2.536  -0.621  -2.436
   2.732  -0.368  -2.436
   2.888  -0.089  -2.436
   3.002   0.209  -2.436
   3.072   0.521  -2.436
   2.886   0.840  -2.670
   2.860   1.158  -2.670
   2.784   1.467  -2.670
   2.659   1.760  -2.670
   2.489   2.029  -2.670
   2.278   2.268  -2.670
   2.031   2.469  -2.670
   1.755   2.629  -2.670
   1.457   2.742  -2.670
   1.145   2.805  -2.670
   0.826   2.818  -2.670
   0.510   2.780  -2.670
   1.755  -0.949  -2.670
   2.031  -0.789  -2.670
   2.278  -0.588  -2.670
   2.489  -0.349  -2.670
   2.659  -0.080  -2.670
   2.784   0.213  -2.670
   2.860   0.522  -2.670
   2.652   0.840  -2.879
   2.622   1.161  -2.879
   2.534   1.471  -2.879
   2.390   1.759  -2.879
   2.196   2.016  -2.879
   1.958   2.233  -2.879
   1.684   2.403  -2.879
   1.384   2.519  -2.879
   1.067   2.578  -2.879
   0.745   2.578  -2.879
   0.428   2.519  -2.879
   1.384  -0.839  -2.879
   1.684  -0.723  -2.879
   1.958  -0.553  -2.879
   2.196  -0.336  -2.879
   2.390  -0.079  -2.879
   2.534   0.209  -2.879
   2.622   0.519  -2.879
   2.396   0.840  -3.061
   2.361   1.160  -3.061
   2.258   1.466  -3.061
   2.092   1.742  -3.061
   1.870   1.975  -3.061
   1.604   2.156  -3.061
   1.305   2.275  -3.061
   0.987   2.328  -3.061
   0.665   2.310  -3.061
   1.305  -0.595  -3.061
   1.604  -0.476  -3.061
   1.870  -0.295  -3.061
   2.092  -0.062  -3.061
   2.258   0.214  -3.061
   2.361   0.520  -3.061
   2.121   0.840  -3.213
   2.079   1.154  -3.213
   1.958   1.447  -3.213
   1.765   1.699  -3.213
   1.513   1.892  -3.213
   1.220   2.013  -3.213
   0.906   2.055  -3.213
   0.592   2.013  -3.213
   0.906  -0.375  -3.213
   1.220  -0.333  -3.213
   1.513  -0.212  -3.213
   1.765  -0.019  -3.213
   1.958   0.233  -3.213
   2.079   0.526  -3.213
   1.831   0.840  -3.333
   1.775   1.156  -3.333
   1.614   1.434  -3.333
   1.368   1.641  -3.333
   1.067   1.751  -3.333
   0.745   1.751  -3.333
   0.745  -0.071  -3.333
   1.067  -0.071  -3.333
   1.368   0.039  -3.333
   1.614   0.246  -3.333
   1.775   0.524  -3.333
   1.529   0.840  -3.420
   1.446   1.152  -3.420
   1.218   1.380  -3.420
   0.906   1.463  -3.420
   0.906   0.217  -3.420
   1.218   0.300  -3.420
   1.446   0.528  -3.420
   1.220   0.840  -3.472
   1.063   1.112  -3.472
   0.749   1.112  -3.472
   0.749   0.568  -3.472
   1.063   0.568  -3.472
   0.906   0.840  -3.490
   0.049  -2.731   2.437
   0.371  -2.773   2.437
   0.693  -2.731   2.437
   0.994  -2.606   2.437
   1.252  -2.409   2.437
   1.449  -2.151   2.437
  -0.486  -2.792   2.281
  -0.194  -2.946   2.281
   0.124  -3.035   2.281
   0.454  -3.053   2.281
   0.779  -2.999   2.281
   1.086  -2.877   2.281
   1.360  -2.692   2.281
   1.587  -2.452   2.281
   1.757  -2.169   2.281
   1.862  -1.856   2.281
   2.160  -1.528   2.095
  -0.951  -2.734   2.095
  -0.707  -2.956   2.095
  -0.427  -3.130   2.095
  -0.119  -3.249   2.095
   0.206  -3.310   2.095
   0.536  -3.310   2.095
   0.861  -3.249   2.095
   1.169  -3.130   2.095
   1.449  -2.956   2.095
   1.693  -2.734   2.095
   1.892  -2.470   2.095
   2.040  -2.174   2.095
   2.130  -1.857   2.095
   2.400  -1.528   1.880
  -1.344  -2.613   1.880
  -1.148  -2.874   1.880
  -0.912  -3.100   1.880
  -0.644  -3.286   1.880
  -0.349  -3.426   1.880
  -0.035  -3.516   1.880
   0.289  -3.556   1.880
   0.616  -3.543   1.880
   0.936  -3.477   1.880
   1.241  -3.361   1.880
   1.524  -3.198   1.880
   1.777  -2.992   1.880
   1.993  -2.747   1.880
   2.168  -2.471   1.880
   2.296  -2.171   1.880
   2.374  -1.854   1.880
   2.615  -1.528   1.640
   2.591  -1.201   1.640
  -1.725  -2.330   1.640
  -1.586  -2.626   1.640
  -1.405  -2.899   1.640
  -1.186  -3.143   1.640
  -0.935  -3.353   1.640
  -0.655  -3.524   1.640
  -0.354  -3.652   1.640
  -0.037  -3.735   1.640
   0.289  -3.770   1.640
   0.616  -3.758   1.640
   0.939  -3.699   1.640
   1.249  -3.593   1.640
   1.540  -3.443   1.640
   1.806  -3.253   1.640
   2.042  -3.025   1.640
   2.242  -2.766   1.640
   2.403  -2.480   1.640
   2.520  -2.174   1.640
   2.591  -1.855   1.640
   2.801  -1.528   1.378
   2.779  -1.204   1.378
  -1.798  -2.624   1.378
  -1.632  -2.903   1.378
  -1.431  -3.158   1.378
  -1.198  -3.384   1.378
  -0.937  -3.576   1.378
  -0.652  -3.732   1.378
  -0.349  -3.849   1.378
  -0.033  -3.924   1.378
   0.290  -3.957   1.378
   0.614  -3.946   1.378
   0.934  -3.892   1.378
   1.244  -3.796   1.378
   1.539  -3.659   1.378
   1.812  -3.484   1.378
   2.060  -3.275   1.378
   2.278  -3.034   1.378
   2.462  -2.766   1.378
   2.608  -2.477   1.378
   2.715  -2.170   1.378
   2.779  -1.852   1.378
   2.957  -1.528   1.096
   2.936  -1.204   1.096
  -2.033  -2.480   1.096
  -1.895  -2.774   1.096
  -1.721  -3.048   1.096
  -1.514  -3.298   1.096
  -1.277  -3.520   1.096
  -1.015  -3.711   1.096
  -0.730  -3.868   1.096
  -0.428  -3.987   1.096
  -0.114  -4.068   1.096
   0.209  -4.109   1.096
   0.533  -4.109   1.096
   0.856  -4.068   1.096
   1.170  -3.987   1.096
   1.472  -3.868   1.096
   1.757  -3.711   1.096
   2.019  -3.520   1.096
   2.256  -3.298   1.096
   2.463  -3.048   1.096
   2.637  -2.774   1.096
   2.775  -2.480   1.096
   2.876  -2.171   1.096
   2.936  -1.852   1.096
   3.080  -1.528   0.799
   3.060  -1.201   0.799
  -2.162  -2.489   0.799
  -2.028  -2.787   0.799
  -1.858  -3.067   0.799
  -1.657  -3.324   0.799
  -1.425  -3.556   0.799
  -1.168  -3.757   0.799
  -0.888  -3.927   0.799
  -0.590  -4.061   0.799
  -0.277  -4.158   0.799
   0.044  -4.217   0.799
   0.371  -4.237   0.799
   0.698  -4.217   0.799
   1.019  -4.158   0.799
   1.332  -4.061   0.799
   1.630  -3.927   0.799
   1.910  -3.757   0.799
   2.167  -3.556   0.799
   2.399  -3.324   0.799
   2.600  -3.067   0.799
   2.770  -2.787   0.799
   2.904  -2.489   0.799
   3.001  -2.176   0.799
   3.060  -1.855   0.799
   3.169  -1.528   0.490
   3.150  -1.203   0.490
  -2.129  -2.784   0.490
  -1.967  -3.066   0.490
  -1.772  -3.327   0.490
  -1.549  -3.563   0.490
  -1.300  -3.772   0.490
  -1.028  -3.951   0.490
  -0.737  -4.097   0.490
  -0.431  -4.208   0.490
  -0.115  -4.284   0.490
   0.208  -4.321   0.490
   0.534  -4.321   0.490
   0.857  -4.284   0.490
   1.173  -4.208   0.490
   1.479  -4.097   0.490
   1.770  -3.951   0.490
   2.042  -3.772   0.490
   2.291  -3.563   0.490
   2.514  -3.327   0.490
   2.709  -3.066   0.490
   2.871  -2.784   0.490
   3.000  -2.485   0.490
   3.094  -2.173   0.490
   3.150  -1.853   0.490
   3.223  -1.528   0.172
   3.204  -1.203   0.172
   3.149  -0.882   0.172
  -2.112  -2.930   0.172
  -1.936  -3.204   0.172
  -1.730  -3.456   0.172
  -1.497  -3.683   0.172
  -1.239  -3.882   0.172
  -0.960  -4.050   0.172
  -0.664  -4.186   0.172
  -0.354  -4.286   0.172
  -0.035  -4.351   0.172
   0.290  -4.379   0.172
   0.615  -4.369   0.172
   0.937  -4.323   0.172
   1.252  -4.240   0.172
   1.556  -4.122   0.172
   1.844  -3.970   0.172
   2.113  -3.786   0.172
   2.359  -3.573   0.172
   2.579  -3.333   0.172
   2.770  -3.070   0.172
   2.930  -2.786   0.172
   3.057  -2.486   0.172
   3.149  -2.174   0.172
   3.204  -1.853   0.172
   3.241  -1.528  -0.149
   3.223  -1.207  -0.149
   3.169  -0.889  -0.149
  -2.059  -3.055  -0.149
  -1.873  -3.317  -0.149
  -1.658  -3.557  -0.149
  -1.418  -3.772  -0.149
  -1.156  -3.958  -0.149
  -0.874  -4.114  -0.149
  -0.577  -4.237  -0.149
  -0.268  -4.326  -0.149
   0.050  -4.380  -0.149
   0.371  -4.398  -0.149
   0.692  -4.380  -0.149
   1.010  -4.326  -0.149
   1.319  -4.237  -0.149
   1.616  -4.114  -0.149
   1.898  -3.958  -0.149
   2.160  -3.772  -0.149
   2.400  -3.557  -0.149
   2.615  -3.317  -0.149
   2.801  -3.055  -0.149
   2.957  -2.773  -0.149
   3.080  -2.476  -0.149
   3.169  -2.167  -0.149
   3.223  -1.849  -0.149
   3.223  -1.528  -0.470
   3.204  -1.203  -0.470
   3.149  -0.882  -0.470
  -2.112  -2.930  -0.470
  -1.936  -3.204  -0.470
  -1.730  -3.456  -0.470
  -1.497  -3.683  -0.470
  -1.239  -3.882  -0.470
  -0.960  -4.050  -0.470
  -0.664  -4.186  -0.470
  -0.354  -4.286  -0.470
  -0.035  -4.351  -0.470
   0.290  -4.379  -0.470
   0.615  -4.369  -0.470
   0.937  -4.323  -0.470
   1.252  -4.240  -0.470
   1.556  -4.122  -0.470
   1.844  -3.970  -0.470
   2.113  -3.786  -0.470
   2.359  -3.573  -0.470
   2.579  -3.333  -0.470
   2.770  -3.070  -0.470
   2.930  -2.786  -0.470
   3.057  -2.486  -0.470
   3.149  -2.174  -0.470
   3.204  -1.853  -0.470
   3.169  -1.528  -0.788
   3.150  -1.203  -0.788
  -1.967  -3.066  -0.788
  -1.772  -3.327  -0.788
  -1.549  -3.563  -0.788
  -1.300  -3.772  -0.788
  -1.028  -3.951  -0.788
  -0.737  -4.097  -0.788
  -0.431  -4.208  -0.788
  -0.115  -4.284  -0.788
   0.208  -4.321  -0.788
   0.534  -4.321  -0.788
   0.857  -4.284  -0.788
   1.173  -4.208  -0.788
   1.479  -4.097  -0.788
   1.770  -3.951  -0.788
   2.042  -3.772  -0.788
   2.291  -3.563  -0.788
   2.514  -3.327  -0.788
   2.709  -3.066  -0.788
   2.871  -2.784  -0.788
   3.000  -2.485  -0.788
   3.094  -2.173  -0.788
   3.150  -1.853  -0.788
   3.080  -1.528  -1.097
   3.060  -1.201  -1.097
  -1.858  -3.067  -1.097
  -1.657  -3.324  -1.097
  -1.425  -3.556  -1.097
  -1.168  -3.757  -1.097
  -0.888  -3.927  -1.097
  -0.590  -4.061  -1.097
  -0.277  -4.158  -1.097
   0.044  -4.217  -1.097
   0.371  -4.237  -1.097
   0.698  -4.217  -1.097
   1.019  -4.158  -1.097
   1.332  -4.061  -1.097
   1.630  -3.927  -1.097
   1.910  -3.757  -1.097
   2.167  -3.556  -1.097
   2.399  -3.324  -1.097
   2.600  -3.067  -1.097
   2.770  -2.787  -1.097
   2.904  -2.489  -1.097
   3.001  -2.176  -1.097
   3.060  -1.855  -1.097
   2.957  -1.528  -1.394
   2.936  -1.204  -1.394
  -1.721  -3.048  -1.394
  -1.514  -3.298  -1.394
  -1.277  -3.520  -1.394
  -1.015  -3.711  -1.394
  -0.730  -3.868  -1.394
  -0.428  -3.987  -1.394
  -0.114  -4.068  -1.394
   0.209  -4.109  -1.394
   0.533  -4.109  -1.394
   0.856  -4.068  -1.394
   1.170  -3.987  -1.394
   1.472  -3.868  -1.394
   1.757  -3.711  -1.394
   2.019  -3.520  -1.394
   2.256  -3.298  -1.394
   2.463  -3.048  -1.394
   2.637  -2.774  -1.394
   2.775  -2.480  -1.394
   2.876  -2.171  -1.394
   2.936  -1.852  -1.394
   2.801  -1.528  -1.676
   2.779  -1.204  -1.676
  -1.632  -2.903  -1.676
  -1.431  -3.158  -1.676
  -1.198  -3.384  -1.676
  -0.937  -3.576  -1.676
  -0.652  -3.732  -1.676
  -0.349  -3.849  -1.676
  -0.033  -3.924  -1.676
   0.290  -3.957  -1.676
   0.614  -3.946  -1.676
   0.934  -3.892  -1.676
   1.244  -3.796  -1.676
   1.539  -3.659  -1.676
   1.812  -3.484  -1.676
   2.060  -3.275  -1.676
   2.278  -3.034  -1.676
   2.462  -2.766  -1.676
   2.608  -2.477  -1.676
   2.715  -2.170  -1.676
   2.779  -1.852  -1.676
   2.615  -1.528  -1.938
   2.591  -1.201  -1.938
  -1.586  -2.626  -1.938
  -1.405  -2.899  -1.938
  -1.186  -3.143  -1.938
  -0.935  -3.353  -1.938
  -0.655  -3.524  -1.938
  -0.354  -3.652  -1.938
  -0.037  -3.735  -1.938
   0.289  -3.770  -1.938
   0.616  -3.758  -1.938
   0.939  -3.699  -1.938
   1.249  -3.593  -1.938
   1.540  -3.443  -1.938
   1.806  -3.253  -1.938
   2.042  -3.025  -1.938
   2.242  -2.766  -1.938
   2.403  -2.480  -1.938
   2.520  -2.174  -1.938
   2.591  -1.855  -1.938
   2.400  -1.528  -2.178
   2.374  -1.202  -2.178
  -1.344  -2.613  -2.178
  -1.148  -2.874  -2.178
  -0.912  -3.100  -2.178
  -0.644  -3.286  -2.178
  -0.349  -3.426  -2.178
  -0.035  -3.516  -2.178
   0.289  -3.556  -2.178
   0.616  -3.543  -2.178
   0.936  -3.477  -2.178
   1.241  -3.361  -2.178
   1.524  -3.198  -2.178
   1.777  -2.992  -2.178
   1.993  -2.747  -2.178
   2.168  -2.471  -2.178
   2.296  -2.171  -2.178
   2.374  -1.854  -2.178
   2.160  -1.528  -2.393
   2.130  -1.199  -2.393
  -1.150  -2.470  -2.393
  -0.951  -2.734  -2.393
  -0.707  -2.956  -2.393
  -0.427  -3.130  -2.393
  -0.119  -3.249  -2.393
   0.206  -3.310  -2.393
   0.536  -3.310  -2.393
   0.861  -3.249  -2.393
   1.169  -3.130  -2.393
   1.449  -2.956  -2.393
   1.693  -2.734  -2.393
   1.892  -2.470  -2.393
   2.040  -2.174  -2.393
   2.130  -1.857  -2.393
   1.898  -1.528  -2.579
   1.862  -1.200  -2.579
  -0.937  -2.315  -2.579
  -0.738  -2.578  -2.579
  -0.486  -2.792  -2.579
  -0.194  -2.946  -2.579
   0.124  -3.035  -2.579
   0.454  -3.053  -2.579
   0.779  -2.999  -2.579
   1.086  -2.877  -2.579
   1.360  -2.692  -2.579
   1.587  -2.452  -2.579
   1.757  -2.169  -2.579
   1.862  -1.856  -2.579
   1.616  -1.528  -2.735
   1.574  -1.206  -2.735
  -0.707  -2.151  -2.735
  -0.510  -2.409  -2.735
  -0.252  -2.606  -2.735
   0.049  -2.731  -2.735
   0.371  -2.773  -2.735
   0.693  -2.731  -2.735
   0.994  -2.606  -2.735
   1.252  -2.409  -2.735
   1.449  -2.151  -2.735
   1.574  -1.850  -2.735
   1.319  -1.528  -2.858
   1.262  -1.204  -2.858
  -0.520  -1.852  -2.858
  -0.355  -2.137  -2.858
  -0.103  -2.349  -2.858
   0.206  -2.462  -2.858
   0.536  -2.462  -2.858
   0.845  -2.349  -2.858
   1.097  -2.137  -2.858
   1.262  -1.852  -2.858
   1.010  -1.528  -2.947
   0.924  -1.209  -2.947
  -0.268  -1.528  -2.947
  -0.182  -1.847  -2.947
   0.052  -2.081  -2.947
   0.371  -2.167  -2.947
   0.690  -2.081  -2.947
   0.924  -1.847  -2.947
   0.692  -1.528  -3.001
   0.050  -1.528  -3.001
   0.210  -1.806  -3.001
   0.532  -1.806  -3.001
   0.371  -1.528  -3.019
  -2.962   0.007   1.767
  -2.962  -0.315   1.767
  -2.893  -0.630   1.767
  -2.757  -0.922   1.767
  -3.109   0.477   1.585
  -3.197   0.167   1.585
  -3.227  -0.154   1.585
  -3.197  -0.475   1.585
  -3.109  -0.785   1.585
  -2.965  -1.073   1.585
  -2.771  -1.330   1.585
  -2.533  -1.547   1.585
  -3.454   0.005   1.376
  -3.454  -0.313   1.376
  -3.403  -0.628   1.376
  -3.302  -0.930   1.376
  -3.154  -1.212   1.376
  -2.963  -1.467   1.376
  -2.733  -1.688   1.376
  -2.471  -1.869   1.376
  -3.664  -0.314   1.142
  -3.618  -0.630   1.142
  -3.526  -0.936   1.142
  -3.390  -1.225   1.142
  -3.214  -1.492   1.142
  -3.000  -1.730   1.142
  -2.755  -1.934   1.142
  -2.482  -2.101   1.142
  -3.804  -0.626   0.886
  -3.721  -0.932   0.886
  -3.597  -1.223   0.886
  -3.436  -1.496   0.886
  -3.239  -1.744   0.886
  -3.012  -1.964   0.886
  -2.757  -2.152   0.886
  -2.479  -2.305   0.886
  -2.183  -2.418   0.886
  -3.924  -0.781   0.611
  -3.827  -1.083   0.611
  -3.692  -1.369   0.611
  -3.522  -1.637   0.611
  -3.320  -1.881   0.611
  -3.089  -2.098   0.611
  -2.833  -2.284   0.611
  -2.555  -2.437   0.611
  -2.261  -2.553   0.611
  -3.821  -1.382   0.321
  -3.656  -1.655   0.321
  -3.459  -1.907   0.321
  -3.234  -2.132   0.321
  -2.982  -2.329   0.321
  -2.709  -2.494   0.321
  -2.418  -2.625   0.321
  -3.762  -1.654   0.019
  -3.572  -1.909   0.019
  -3.354  -2.140   0.019
  -3.111  -2.344   0.019
  -2.846  -2.518   0.019
  -2.562  -2.661   0.019
  -2.264  -2.769   0.019
  -3.732  -1.789  -0.290
  -3.531  -2.035  -0.290
  -3.303  -2.257  -0.290
  -3.052  -2.451  -0.290
  -2.779  -2.615  -0.290
  -2.490  -2.747  -0.290
  -2.188  -2.845  -0.290
  -3.461  -2.134  -0.604
  -3.227  -2.343  -0.604
  -2.971  -2.525  -0.604
  -2.696  -2.677  -0.604
  -2.406  -2.797  -0.604
  -3.531  -2.035  -0.917
  -3.303  -2.257  -0.917
  -3.052  -2.451  -0.917
  -2.779  -2.615  -0.917
  -2.490  -2.747  -0.917
  -2.188  -2.845  -0.917
  -3.354  -2.140  -1.227
  -3.111  -2.344  -1.227
  -2.846  -2.518  -1.227
  -2.562  -2.661  -1.227
  -2.264  -2.769  -1.227
  -1.955  -2.842  -1.227
  -2.982  -2.329  -1.529
  -2.709  -2.494  -1.529
  -2.418  -2.625  -1.529
  -2.113  -2.720  -1.529
  -2.833  -2.284  -1.819
  -2.555  -2.437  -1.819
  -2.261  -2.553  -1.819
  -1.954  -2.632  -1.819
  -2.757  -2.152  -2.094
  -2.479  -2.305  -2.094
  -2.183  -2.418  -2.094
  -1.875  -2.492  -2.094
  -1.560  -2.524  -2.094
  -2.482  -2.101  -2.350
  -2.188  -2.226  -2.350
  -1.879  -2.307  -2.350
  -1.561  -2.342  -2.350
  -2.183  -2.005  -2.584
  -1.877  -2.094  -2.584
  -1.561  -2.132  -2.584
  -1.242  -2.119  -2.584
  -1.642  -1.892  -2.793
  -1.320  -1.892  -2.793
  -1.003  -1.833  -2.793
  -1.082  -1.589  -2.975
  -0.783  -1.470  -2.975
  -3.497   0.856   1.416
  -3.451   0.508   1.416
  -3.792   1.034   1.248
  -3.792   0.678   1.248
  -3.715   0.329   1.248
  -4.052   1.211   1.047
  -4.085   0.856   1.047
  -4.052   0.501   1.047
  -3.954   0.158   1.047
  -3.795  -0.161   1.047
  -4.280   1.381   0.815
  -4.337   1.032   0.815
  -4.337   0.680   0.815
  -4.280   0.331   0.815
  -4.169  -0.003   0.815
  -4.005  -0.316   0.815
  -4.416   1.722   0.556
  -4.518   1.383   0.556
  -4.569   1.033   0.556
  -4.632   1.717   0.272
  -4.724   1.379   0.272
  -4.749   1.884  -0.032
  -4.743   2.216  -0.353
  -4.677   2.517  -0.687
  -4.853   2.212  -0.687
  -4.644   2.667  -1.030
  -4.834   2.371  -1.030
  -4.576   2.789  -1.377
  -4.777   2.505  -1.377
  -4.169   3.184  -1.724
  -4.422   2.939  -1.724
  -4.644   2.667  -1.724
  -3.957   3.280  -2.067
  -4.226   3.054  -2.067
  -4.467   2.799  -2.067
  -4.677   2.517  -2.067
  -1.114   3.592  -2.401
  -1.452   3.697  -2.401
  -3.190   3.592  -2.401
  -3.512   3.447  -2.401
  -3.814   3.264  -2.401
  -4.092   3.046  -2.401
  -4.342   2.796  -2.401
  -4.560   2.518  -2.401
  -2.505  -2.049  -2.401
  -1.629   3.600  -2.722
  -1.977   3.643  -2.722
  -2.327   3.643  -2.722
  -2.675   3.600  -2.722
  -3.015   3.512  -2.722
  -3.341   3.383  -2.722
  -3.649   3.214  -2.722
  -3.932   3.008  -2.722
  -4.188   2.768  -2.722
  -4.412   2.498  -2.722
  -2.675  -1.888  -2.722
  -2.327  -1.931  -2.722
  -1.977  -1.931  -2.722
  -2.240   3.479  -3.026
  -2.589   3.444  -3.026
  -2.930   3.363  -3.026
  -3.257   3.237  -3.026
  -3.564   3.068  -3.026
  -3.847   2.860  -3.026
  -4.099   2.617  -3.026
  -4.316   2.342  -3.026
  -2.589  -1.732  -3.026
  -2.240  -1.767  -3.026
  -1.889  -1.756  -3.026
  -1.544  -1.697  -3.026
  -1.209  -1.593  -3.026
  -0.891  -1.446  -3.026
  -2.592   3.239  -3.310
  -2.935   3.150  -3.310
  -3.260   3.011  -3.310
  -3.562   2.827  -3.310
  -3.834   2.601  -3.310
  -4.070   2.337  -3.310
  -4.266   2.042  -3.310
  -2.592  -1.527  -3.310
  -2.241  -1.566  -3.310
  -1.887  -1.553  -3.310
  -1.539  -1.489  -3.310
  -2.929   2.906  -3.569
  -3.248   2.754  -3.569
  -3.538   2.554  -3.569
  -3.793   2.310  -3.569
  -4.005   2.028  -3.569
  -2.590  -1.292  -3.569
  -2.240  -1.334  -3.569
  -1.888  -1.320  -3.569
  -3.317   2.398  -3.801
  -3.580   2.158  -3.801
  -3.795   1.874  -3.801
  -3.954   1.554  -3.801
  -2.681  -1.003  -3.801
  -2.330  -1.069  -3.801
  -3.349   1.990  -4.002
  -3.565   1.706  -4.002
  -3.715   1.383  -4.002
  -3.078  -0.509  -4.002
  -2.762  -0.676  -4.002
  -3.451   1.204  -4.170
  -3.497   0.856  -4.170
  -3.451   0.508  -4.170
  -3.317   0.183  -4.170
  -3.103  -0.095  -4.170
  -4.014   1.625   1.040
  -4.208   1.921   0.823
  -4.208   1.625   0.823
  -4.338   2.212   0.585
  -4.378   1.920   0.585
  -4.359   2.635   0.330
  -4.450   2.356   0.330
  -4.505   2.067   0.330
  -4.354   2.913   0.061
  -4.476   2.643   0.061
  -4.564   2.360   0.061
  -4.617   2.069   0.061
  -4.299   3.166  -0.219
  -4.446   2.911  -0.219
  -4.563   2.640  -0.219
  -4.647   2.358  -0.219
  -4.084   3.520  -0.507
  -4.271   3.292  -0.507
  -4.431   3.043  -0.507
  -4.561   2.779  -0.507
  -4.660   2.501  -0.507
  -3.802   3.806  -0.798
  -4.019   3.611  -0.798
  -4.214   3.394  -0.798
  -4.382   3.156  -0.798
  -4.524   2.901  -0.798
  -4.635   2.632  -0.798
  -3.387   4.058  -1.089
  -3.639   3.906  -1.089
  -3.873   3.726  -1.089
  -4.084   3.520  -1.089
  -4.271   3.292  -1.089
  -4.431   3.043  -1.089
  -3.185   4.101  -1.377
  -3.448   3.968  -1.377
  -3.695   3.806  -1.377
  -3.920   3.617  -1.377
  -4.123   3.402  -1.377
  -4.299   3.166  -1.377
  -2.768   4.156  -1.657
  -3.051   4.068  -1.657
  -3.321   3.946  -1.657
  -3.575   3.793  -1.657
  -3.808   3.610  -1.657
  -4.018   3.400  -1.657
  -4.201   3.167  -1.657
  -2.328   4.111  -1.926
  -2.620   4.074  -1.926
  -2.905   4.001  -1.926
  -3.178   3.893  -1.926
  -3.436   3.751  -1.926
  -3.674   3.578  -1.926
  -3.889   3.377  -1.926
  -1.961   3.963  -2.181
  -2.255   3.973  -2.181
  -2.547   3.944  -2.181
  -2.833   3.876  -2.181
  -3.108   3.770  -2.181
  -3.366   3.629  -2.181
  -1.667   3.740  -2.419
  -1.959   3.794  -2.419
  -2.255   3.804  -2.419
  -2.550   3.772  -2.419
  -2.837   3.697  -2.419
  -0.001   3.020  -2.312
  -0.239   3.188  -2.312
  -0.494   3.330  -2.312
   0.179   2.840  -2.603
  -0.044   3.033  -2.603
  -0.288   3.200  -2.603
  -0.549   3.337  -2.603
  -0.824   3.444  -2.603
  -1.109   3.519  -2.603
   0.320   2.616  -2.891
   0.117   2.831  -2.891
  -0.108   3.020  -2.891
  -0.355   3.182  -2.891
  -0.618   3.315  -2.891
  -0.895   3.415  -2.891
  -1.182   3.483  -2.891
  -1.475   3.518  -2.891
   0.551   2.127  -3.171