 $system timlim=999888777
         mwords=100 $end
 $contrl exetyp=run
         runtyp=energy scftyp=rhf
         icharg=-1 mult=1 units=angs coord=unique
         maxit=50 ispher=1 qmttol=1d-6 icut=12 itol=22 $end
 $scf    dirscf=.t. diis=.t. soscf=.f.
         fdiff=.f. conv=1d-6
         npreo(1)=0,-1,1,9999 $end
 $elpot  iepot=1 where=points $end
 $basis  gbasis=n311 ngauss=6
         ndfunc=1 npfunc=1 diffsp=.t. diffs=.t. $end
 $DATA
TS1a_hfd_irc200_all_revmov.pdb
C1
P     15.0    -0.04900  -0.02500  -0.01100 
O      8.0    -0.12200  -0.03700   1.54400 
O      8.0     0.90900   0.84800  -0.66400 
F      9.0     0.37200  -1.53200  -0.19600 
O      8.0    -1.48200  -0.15300  -0.60600 
C      6.0    -2.15200   0.85600  -1.37700 
H      1.0    -2.19600   1.76300  -0.78600 
H      1.0    -1.60900   1.00500  -2.30300 
H      1.0    -3.12800   0.44200  -1.58900 
C      6.0     0.23600   1.06000   2.39800 
H      1.0     0.03100   0.71000   3.40100 
H      1.0     1.29700   1.25400   2.29000 
H      1.0    -0.36100   1.92000   2.11900 
O      8.0    -1.45700   2.76600   0.72900 
H      1.0    -0.90500   3.43600   0.34500 
 $END
 $POINTS
ANGS 3054
   2.523  -1.116   1.745
  -2.216  -2.060   1.421
  -1.944  -2.316   1.421
   2.715  -1.120   1.421
   2.831  -0.764   1.421
  -2.115  -2.356   1.079
   2.975  -0.770   1.079
   3.043  -0.400   1.079
   3.082  -0.767   0.723
   3.147  -0.399   0.723
   3.145  -0.768   0.358
   3.209  -0.399   0.358
   3.168  -0.759  -0.011
  -0.420  -1.408  -2.984
   0.963  -1.037  -2.984
   1.191  -0.741  -2.984
  -0.238  -1.098  -3.126
   0.140  -1.098  -3.126
   0.496  -0.969  -3.126
   0.786  -0.726  -3.126
   0.318  -0.661  -3.228
   0.587  -0.392  -3.228
  -1.604  -1.350   3.524
  -1.374  -1.571   3.524
  -1.112  -1.752   3.524
  -0.824  -1.888   3.524
  -0.518  -1.977   3.524
  -0.202  -2.015   3.524
   0.117  -2.002   3.524
   0.429  -1.939   3.524
   0.727  -1.826   3.524
  -2.167  -0.819   3.290
  -2.031  -1.108   3.290
  -1.855  -1.375   3.290
  -1.641  -1.613   3.290
  -1.396  -1.817   3.290
  -1.123  -1.984   3.290
  -0.829  -2.109   3.290
  -0.520  -2.190   3.290
  -0.202  -2.225   3.290
   0.117  -2.213   3.290
   0.432  -2.155   3.290
   0.734  -2.052   3.290
   1.018  -1.906   3.290
  -2.445  -0.509   3.034
  -2.362  -0.815   3.034
  -2.238  -1.106   3.034
  -2.077  -1.379   3.034
  -1.880  -1.627   3.034
  -1.653  -1.847   3.034
  -1.398  -2.035   3.034
  -1.120  -2.188   3.034
  -0.824  -2.301   3.034
  -0.516  -2.375   3.034
  -0.201  -2.407   3.034
   0.115  -2.396   3.034
   0.428  -2.343   3.034
   0.730  -2.249   3.034
   1.017  -2.116   3.034
   1.284  -1.946   3.034
   1.526  -1.741   3.034
  -2.645  -0.037   2.759
  -2.625  -0.353   2.759
  -2.565  -0.664   2.759
  -2.468  -0.966   2.759
  -2.333  -1.252   2.759
  -2.163  -1.520   2.759
  -1.961  -1.764   2.759
  -1.730  -1.981   2.759
  -1.474  -2.167   2.759
  -1.196  -2.320   2.759
  -0.902  -2.436   2.759
  -0.595  -2.515   2.759
  -0.280  -2.555   2.759
   0.036  -2.555   2.759
   0.351  -2.515   2.759
   0.658  -2.436   2.759
   0.952  -2.320   2.759
   1.230  -2.167   2.759
   1.486  -1.981   2.759
   1.717  -1.764   2.759
   1.919  -1.520   2.759
  -2.765  -0.037   2.469
  -2.746  -0.356   2.469
  -2.688  -0.669   2.469
  -2.593  -0.974   2.469
  -2.462  -1.265   2.469
  -2.297  -1.538   2.469
  -2.100  -1.790   2.469
  -1.875  -2.015   2.469
  -1.623  -2.212   2.469
  -1.350  -2.377   2.469
  -1.059  -2.508   2.469
  -0.754  -2.603   2.469
  -0.441  -2.661   2.469
  -0.122  -2.680   2.469
   0.197  -2.661   2.469
   0.510  -2.603   2.469
   0.815  -2.508   2.469
   1.106  -2.377   2.469
   1.379  -2.212   2.469
   1.631  -2.015   2.469
   1.856  -1.790   2.469
   2.053  -1.538   2.469
  -2.833   0.280   2.167
  -2.852  -0.037   2.167
  -2.833  -0.354   2.167
  -2.778  -0.667   2.167
  -2.687  -0.971   2.167
  -2.561  -1.262   2.167
  -2.403  -1.537   2.167
  -2.213  -1.792   2.167
  -1.995  -2.023   2.167
  -1.752  -2.227   2.167
  -1.487  -2.401   2.167
  -1.203  -2.544   2.167
  -0.905  -2.652   2.167
   2.159  -1.537   2.167
   2.317  -1.262   2.167
  -2.864   0.437   1.858
  -2.900   0.122   1.858
  -2.900  -0.196   1.858
  -2.864  -0.511   1.858
  -2.792  -0.821   1.858
  -2.685  -1.120   1.858
  -2.545  -1.405   1.858
  -2.373  -1.672   1.858
  -2.172  -1.918   1.858
  -1.944  -2.140   1.858
  -1.693  -2.334   1.858
  -1.420  -2.498   1.858
   2.375  -1.265   1.858
   3.196   0.222   0.826
   3.432   0.848   0.551
   3.412   1.164   0.551
   3.352   1.475   0.551
   3.255   1.777   0.551
   3.120   2.063   0.551
   2.950   2.331   0.551
   2.748   2.575   0.551
   2.517   2.792   0.551
   2.261   2.978   0.551
   1.983   3.131   0.551
   1.689   3.247   0.551
   3.255  -0.081   0.551
   3.352   0.221   0.551
   3.412   0.532   0.551
   3.552   0.848   0.261
   3.533   1.167   0.261
   3.475   1.480   0.261
   3.380   1.785   0.261
   3.249   2.076   0.261
   3.084   2.349   0.261
   2.887   2.601   0.261
   2.662   2.826   0.261
   2.410   3.023   0.261
   2.137   3.188   0.261
   1.846   3.319   0.261
   3.249  -0.380   0.261
   3.380  -0.089   0.261
   3.475   0.216   0.261
   3.533   0.529   0.261
   3.639   0.848  -0.041
   3.620   1.165  -0.041
   3.565   1.478  -0.041
   3.474   1.782  -0.041
   3.348   2.073  -0.041
   3.190   2.348  -0.041
   3.000   2.603  -0.041
   2.782   2.834  -0.041
   2.539   3.038  -0.041
   2.274   3.212  -0.041
   1.990   3.355  -0.041
   1.692   3.463  -0.041
   3.348  -0.377  -0.041
   3.474  -0.086  -0.041
   3.565   0.218  -0.041
   3.620   0.531  -0.041
   3.691   0.848  -0.350
   3.673   1.165  -0.350
   3.619   1.478  -0.350
   3.530   1.783  -0.350
   3.406   2.076  -0.350
   3.250   2.352  -0.350
   3.063   2.609  -0.350
   2.848   2.843  -0.350
   2.608   3.051  -0.350
   2.346   3.231  -0.350
   2.065   3.379  -0.350
   1.769   3.494  -0.350
   3.250  -0.656  -0.350
   3.406  -0.380  -0.350
   3.530  -0.087  -0.350
   3.619   0.218  -0.350
   3.673   0.531  -0.350
   3.709   0.848  -0.664
   3.691   1.162  -0.664
   3.639   1.471  -0.664
   3.552   1.773  -0.664
   3.432   2.063  -0.664
   3.280   2.338  -0.664
   3.098   2.594  -0.664
   2.889   2.828  -0.664
   2.655   3.037  -0.664
   2.399   3.219  -0.664
   2.124   3.371  -0.664
   1.834   3.491  -0.664
   1.532   3.578  -0.664
   3.280  -0.642  -0.664
   3.432  -0.367  -0.664
   3.552  -0.077  -0.664
   3.639   0.225  -0.664
   3.691   0.534  -0.664
   3.691   0.848  -0.977
   3.673   1.165  -0.977
   3.619   1.478  -0.977
   3.530   1.783  -0.977
   3.406   2.076  -0.977
   3.250   2.352  -0.977
   3.063   2.609  -0.977
   2.848   2.843  -0.977
   2.608   3.051  -0.977
   2.346   3.231  -0.977
   2.065   3.379  -0.977
   1.769   3.494  -0.977
   1.462   3.575  -0.977
   3.250  -0.656  -0.977
   3.406  -0.380  -0.977
   3.530  -0.087  -0.977
   3.619   0.218  -0.977
   3.673   0.531  -0.977
   3.639   0.848  -1.287
   3.620   1.165  -1.287
   3.565   1.478  -1.287
   3.474   1.782  -1.287
   3.348   2.073  -1.287
   3.190   2.348  -1.287
   3.000   2.603  -1.287
   2.782   2.834  -1.287
   2.539   3.038  -1.287
   2.274   3.212  -1.287
   1.990   3.355  -1.287
   1.692   3.463  -1.287
   1.383   3.536  -1.287
   3.000  -0.907  -1.287
   3.190  -0.652  -1.287
   3.348  -0.377  -1.287
   3.474  -0.086  -1.287
   3.565   0.218  -1.287
   3.620   0.531  -1.287
   3.552   0.848  -1.589
   3.533   1.167  -1.589
   3.475   1.480  -1.589
   3.380   1.785  -1.589
   3.249   2.076  -1.589
   3.084   2.349  -1.589
   2.887   2.601  -1.589
   2.662   2.826  -1.589
   2.410   3.023  -1.589
   2.137   3.188  -1.589
   1.846   3.319  -1.589
   1.541   3.414  -1.589
   1.228   3.472  -1.589
   0.909   3.491  -1.589
   2.887  -0.905  -1.589
   3.084  -0.653  -1.589
   3.249  -0.380  -1.589
   3.380  -0.089  -1.589
   3.475   0.216  -1.589
   3.533   0.529  -1.589
   3.432   0.848  -1.879
   3.412   1.164  -1.879
   3.352   1.475  -1.879
   3.255   1.777  -1.879
   3.120   2.063  -1.879
   2.950   2.331  -1.879
   2.748   2.575  -1.879
   2.517   2.792  -1.879
   2.261   2.978  -1.879
   1.983   3.131  -1.879
   1.689   3.247  -1.879
   1.382   3.326  -1.879
   1.067   3.366  -1.879
   0.751   3.366  -1.879
   2.748  -0.879  -1.879
   2.950  -0.635  -1.879
   3.120  -0.367  -1.879
   3.255  -0.081  -1.879
   3.352   0.221  -1.879
   3.412   0.532  -1.879
   3.280   0.848  -2.154
   3.259   1.164  -2.154
   3.196   1.474  -2.154
   3.092   1.774  -2.154
   2.949   2.056  -2.154
   2.770   2.317  -2.154
   2.557   2.552  -2.154
   2.315   2.757  -2.154
   2.048   2.927  -2.154
   1.761   3.060  -2.154
   1.459   3.154  -2.154
   1.146   3.207  -2.154
   0.830   3.218  -2.154
   0.515   3.186  -2.154
   0.207   3.112  -2.154
   2.557  -0.856  -2.154
   2.770  -0.621  -2.154
   2.949  -0.360  -2.154
   3.092  -0.078  -2.154
   3.196   0.222  -2.154
   3.259   0.532  -2.154
   3.098   0.848  -2.410
   3.075   1.167  -2.410
   3.005   1.479  -2.410
   2.891   1.777  -2.410
   2.735   2.056  -2.410
   2.539   2.309  -2.410
   2.309   2.531  -2.410
   2.049   2.717  -2.410
   1.765   2.863  -2.410
   1.463   2.966  -2.410
   1.148   3.024  -2.410
   0.829   3.036  -2.410
   0.511   3.001  -2.410
   0.202   2.920  -2.410
   2.309  -0.835  -2.410
   2.539  -0.613  -2.410
   2.735  -0.360  -2.410
   2.891  -0.081  -2.410
   3.005   0.217  -2.410
   3.075   0.529  -2.410
   2.889   0.848  -2.644
   2.863   1.166  -2.644
   2.787   1.475  -2.644
   2.662   1.768  -2.644
   2.492   2.037  -2.644
   2.281   2.276  -2.644
   2.034   2.477  -2.644
   1.758   2.637  -2.644
   1.460   2.750  -2.644
   1.148   2.813  -2.644
   0.829   2.826  -2.644
   0.513   2.788  -2.644
   1.758  -0.941  -2.644
   2.034  -0.781  -2.644
   2.281  -0.580  -2.644
   2.492  -0.341  -2.644
   2.662  -0.072  -2.644
   2.787   0.221  -2.644
   2.863   0.530  -2.644
   2.655   0.848  -2.853
   2.625   1.169  -2.853
   2.537   1.479  -2.853
   2.393   1.767  -2.853
   2.199   2.024  -2.853
   1.961   2.241  -2.853
   1.687   2.411  -2.853
   1.387   2.527  -2.853
   1.070   2.586  -2.853
   0.748   2.586  -2.853
   0.431   2.527  -2.853
   1.687  -0.715  -2.853
   1.961  -0.545  -2.853
   2.199  -0.328  -2.853
   2.393  -0.071  -2.853
   2.537   0.217  -2.853
   2.625   0.527  -2.853
   2.399   0.848  -3.035
   2.364   1.168  -3.035
   2.261   1.474  -3.035
   2.095   1.750  -3.035
   1.873   1.983  -3.035
   1.607   2.164  -3.035
   1.308   2.283  -3.035
   0.990   2.336  -3.035
   0.668   2.318  -3.035
   1.308  -0.587  -3.035
   1.607  -0.468  -3.035
   1.873  -0.287  -3.035
   2.095  -0.054  -3.035
   2.261   0.222  -3.035
   2.364   0.528  -3.035
   2.124   0.848  -3.187
   2.082   1.162  -3.187
   1.961   1.455  -3.187
   1.768   1.707  -3.187
   1.516   1.900  -3.187
   1.223   2.021  -3.187
   0.909   2.063  -3.187
   0.909  -0.367  -3.187
   1.223  -0.325  -3.187
   1.516  -0.204  -3.187
   1.768  -0.011  -3.187
   1.961   0.241  -3.187
   2.082   0.534  -3.187
   1.834   0.848  -3.307
   1.778   1.164  -3.307
   1.617   1.442  -3.307
   1.371   1.649  -3.307
   1.070   1.759  -3.307
   0.748   1.759  -3.307
   0.748  -0.063  -3.307
   1.070  -0.063  -3.307
   1.371   0.047  -3.307
   1.617   0.254  -3.307
   1.778   0.532  -3.307
   1.532   0.848  -3.394
   1.449   1.160  -3.394
   1.221   1.388  -3.394
   0.909   1.471  -3.394
   0.909   0.225  -3.394
   1.221   0.308  -3.394
   1.449   0.536  -3.394
   1.223   0.848  -3.446
   1.066   1.120  -3.446
   0.752   1.120  -3.446
   0.752   0.576  -3.446
   1.066   0.576  -3.446
   0.909   0.848  -3.464
   0.050  -2.735   2.390
   0.372  -2.777   2.390
   0.694  -2.735   2.390
   0.995  -2.610   2.390
   1.253  -2.413   2.390
  -0.485  -2.796   2.234
  -0.193  -2.950   2.234
   0.125  -3.039   2.234
   0.455  -3.057   2.234
   0.780  -3.003   2.234
   1.087  -2.881   2.234
   1.361  -2.696   2.234
   1.588  -2.456   2.234
   1.758  -2.173   2.234
  -0.950  -2.738   2.048
  -0.706  -2.960   2.048
  -0.426  -3.134   2.048
  -0.118  -3.253   2.048
   0.207  -3.314   2.048
   0.537  -3.314   2.048
   0.862  -3.253   2.048
   1.170  -3.134   2.048
   1.450  -2.960   2.048
   1.694  -2.738   2.048
   1.893  -2.474   2.048
   2.041  -2.178   2.048
   2.131  -1.861   2.048
   2.401  -1.532   1.833
  -1.343  -2.617   1.833
  -1.147  -2.878   1.833
  -0.911  -3.104   1.833
  -0.643  -3.290   1.833
  -0.348  -3.430   1.833
  -0.034  -3.520   1.833
   0.290  -3.560   1.833
   0.617  -3.547   1.833
   0.937  -3.481   1.833
   1.242  -3.365   1.833
   1.525  -3.202   1.833
   1.778  -2.996   1.833
   1.994  -2.751   1.833
   2.169  -2.475   1.833
   2.297  -2.175   1.833
   2.375  -1.858   1.833
   2.616  -1.532   1.593
   2.592  -1.205   1.593
  -1.585  -2.630   1.593
  -1.404  -2.903   1.593
  -1.185  -3.147   1.593
  -0.934  -3.357   1.593
  -0.654  -3.528   1.593
  -0.353  -3.656   1.593
  -0.036  -3.739   1.593
   0.290  -3.774   1.593
   0.617  -3.762   1.593
   0.940  -3.703   1.593
   1.250  -3.597   1.593
   1.541  -3.447   1.593
   1.807  -3.257   1.593
   2.043  -3.029   1.593
   2.243  -2.770   1.593
   2.404  -2.484   1.593
   2.521  -2.178   1.593
   2.592  -1.859   1.593
   2.802  -1.532   1.331
   2.780  -1.208   1.331
  -1.797  -2.628   1.331
  -1.631  -2.907   1.331
  -1.430  -3.162   1.331
  -1.197  -3.388   1.331
  -0.936  -3.580   1.331
  -0.651  -3.736   1.331
  -0.348  -3.853   1.331
  -0.032  -3.928   1.331
   0.291  -3.961   1.331
   0.615  -3.950   1.331
   0.935  -3.896   1.331
   1.245  -3.800   1.331
   1.540  -3.663   1.331
   1.813  -3.488   1.331
   2.061  -3.279   1.331
   2.279  -3.038   1.331
   2.463  -2.770   1.331
   2.609  -2.481   1.331
   2.716  -2.174   1.331
   2.780  -1.856   1.331
   2.958  -1.532   1.049
   2.937  -1.208   1.049
  -2.032  -2.484   1.049
  -1.894  -2.778   1.049
  -1.720  -3.052   1.049
  -1.513  -3.302   1.049
  -1.276  -3.524   1.049
  -1.014  -3.715   1.049
  -0.729  -3.872   1.049
  -0.427  -3.991   1.049
  -0.113  -4.072   1.049
   0.210  -4.113   1.049
   0.534  -4.113   1.049
   0.857  -4.072   1.049
   1.171  -3.991   1.049
   1.473  -3.872   1.049
   1.758  -3.715   1.049
   2.020  -3.524   1.049
   2.257  -3.302   1.049
   2.464  -3.052   1.049
   2.638  -2.778   1.049
   2.776  -2.484   1.049
   2.877  -2.175   1.049
   2.937  -1.856   1.049
   3.081  -1.532   0.752
   3.061  -1.205   0.752
  -2.027  -2.791   0.752
  -1.857  -3.071   0.752
  -1.656  -3.328   0.752
  -1.424  -3.560   0.752
  -1.167  -3.761   0.752
  -0.887  -3.931   0.752
  -0.589  -4.065   0.752
  -0.276  -4.162   0.752
   0.045  -4.221   0.752
   0.372  -4.241   0.752
   0.699  -4.221   0.752
   1.020  -4.162   0.752
   1.333  -4.065   0.752
   1.631  -3.931   0.752
   1.911  -3.761   0.752
   2.168  -3.560   0.752
   2.400  -3.328   0.752
   2.601  -3.071   0.752
   2.771  -2.791   0.752
   2.905  -2.493   0.752
   3.002  -2.180   0.752
   3.061  -1.859   0.752
   3.170  -1.532   0.443
   3.151  -1.207   0.443
  -2.128  -2.788   0.443
  -1.966  -3.070   0.443
  -1.771  -3.331   0.443
  -1.548  -3.567   0.443
  -1.299  -3.776   0.443
  -1.027  -3.955   0.443
  -0.736  -4.101   0.443
  -0.430  -4.212   0.443
  -0.114  -4.288   0.443
   0.209  -4.325   0.443
   0.535  -4.325   0.443
   0.858  -4.288   0.443
   1.174  -4.212   0.443
   1.480  -4.101   0.443
   1.771  -3.955   0.443
   2.043  -3.776   0.443
   2.292  -3.567   0.443
   2.515  -3.331   0.443
   2.710  -3.070   0.443
   2.872  -2.788   0.443
   3.001  -2.489   0.443
   3.095  -2.177   0.443
   3.151  -1.857   0.443
   3.224  -1.532   0.125
   3.205  -1.207   0.125
   3.150  -0.886   0.125
  -2.111  -2.934   0.125
  -1.935  -3.208   0.125
  -1.729  -3.460   0.125
  -1.496  -3.687   0.125
  -1.238  -3.886   0.125
  -0.959  -4.054   0.125
  -0.663  -4.190   0.125
  -0.353  -4.290   0.125
  -0.034  -4.355   0.125
   0.291  -4.383   0.125
   0.616  -4.373   0.125
   0.938  -4.327   0.125
   1.253  -4.244   0.125
   1.557  -4.126   0.125
   1.845  -3.974   0.125
   2.114  -3.790   0.125
   2.360  -3.577   0.125
   2.580  -3.337   0.125
   2.771  -3.074   0.125
   2.931  -2.790   0.125
   3.058  -2.490   0.125
   3.150  -2.178   0.125
   3.205  -1.857   0.125
   3.242  -1.532  -0.196
   3.224  -1.211  -0.196
   3.170  -0.893  -0.196
  -2.058  -3.059  -0.196
  -1.872  -3.321  -0.196
  -1.657  -3.561  -0.196
  -1.417  -3.776  -0.196
  -1.155  -3.962  -0.196
  -0.873  -4.118  -0.196
  -0.576  -4.241  -0.196
  -0.267  -4.330  -0.196
   0.051  -4.384  -0.196
   0.372  -4.402  -0.196
   0.693  -4.384  -0.196
   1.011  -4.330  -0.196
   1.320  -4.241  -0.196
   1.617  -4.118  -0.196
   1.899  -3.962  -0.196
   2.161  -3.776  -0.196
   2.401  -3.561  -0.196
   2.616  -3.321  -0.196
   2.802  -3.059  -0.196
   2.958  -2.777  -0.196
   3.081  -2.480  -0.196
   3.170  -2.171  -0.196
   3.224  -1.853  -0.196
   3.224  -1.532  -0.517
   3.205  -1.207  -0.517
   3.150  -0.886  -0.517
  -2.111  -2.934  -0.517
  -1.935  -3.208  -0.517
  -1.729  -3.460  -0.517
  -1.496  -3.687  -0.517
  -1.238  -3.886  -0.517
  -0.959  -4.054  -0.517
  -0.663  -4.190  -0.517
  -0.353  -4.290  -0.517
  -0.034  -4.355  -0.517
   0.291  -4.383  -0.517
   0.616  -4.373  -0.517
   0.938  -4.327  -0.517
   1.253  -4.244  -0.517
   1.557  -4.126  -0.517
   1.845  -3.974  -0.517
   2.114  -3.790  -0.517
   2.360  -3.577  -0.517
   2.580  -3.337  -0.517
   2.771  -3.074  -0.517
   2.931  -2.790  -0.517
   3.058  -2.490  -0.517
   3.150  -2.178  -0.517
   3.205  -1.857  -0.517
   3.170  -1.532  -0.835
   3.151  -1.207  -0.835
  -1.966  -3.070  -0.835
  -1.771  -3.331  -0.835
  -1.548  -3.567  -0.835
  -1.299  -3.776  -0.835
  -1.027  -3.955  -0.835
  -0.736  -4.101  -0.835
  -0.430  -4.212  -0.835
  -0.114  -4.288  -0.835
   0.209  -4.325  -0.835
   0.535  -4.325  -0.835
   0.858  -4.288  -0.835
   1.174  -4.213  -0.835
   1.480  -4.101  -0.835
   1.771  -3.955  -0.835
   2.043  -3.776  -0.835
   2.292  -3.567  -0.835
   2.515  -3.331  -0.835
   2.710  -3.070  -0.835
   2.872  -2.788  -0.835
   3.001  -2.489  -0.835
   3.095  -2.177  -0.835
   3.151  -1.857  -0.835
   3.081  -1.532  -1.144
   3.061  -1.205  -1.144
  -1.857  -3.071  -1.144
  -1.656  -3.328  -1.144
  -1.424  -3.560  -1.144
  -1.167  -3.761  -1.144
  -0.887  -3.931  -1.144
  -0.589  -4.065  -1.144
  -0.276  -4.162  -1.144
   0.045  -4.221  -1.144
   0.372  -4.241  -1.144
   0.699  -4.221  -1.144
   1.020  -4.162  -1.144
   1.333  -4.065  -1.144
   1.631  -3.931  -1.144
   1.911  -3.761  -1.144
   2.168  -3.560  -1.144
   2.400  -3.328  -1.144
   2.601  -3.071  -1.144
   2.771  -2.791  -1.144
   2.905  -2.493  -1.144
   3.002  -2.180  -1.144
   3.061  -1.859  -1.144
   2.958  -1.532  -1.441
   2.937  -1.208  -1.441
  -1.720  -3.052  -1.441
  -1.513  -3.302  -1.441
  -1.276  -3.524  -1.441
  -1.014  -3.715  -1.441
  -0.729  -3.872  -1.441
  -0.427  -3.991  -1.441
  -0.113  -4.072  -1.441
   0.210  -4.113  -1.441
   0.534  -4.113  -1.441
   0.857  -4.072  -1.441
   1.171  -3.991  -1.441
   1.473  -3.872  -1.441
   1.758  -3.715  -1.441
   2.020  -3.524  -1.441
   2.257  -3.302  -1.441
   2.464  -3.052  -1.441
   2.638  -2.778  -1.441
   2.776  -2.484  -1.441
   2.877  -2.175  -1.441
   2.937  -1.856  -1.441
   2.802  -1.532  -1.723
   2.780  -1.208  -1.723
  -1.631  -2.907  -1.723
  -1.430  -3.162  -1.723
  -1.197  -3.388  -1.723
  -0.936  -3.580  -1.723
  -0.651  -3.736  -1.723
  -0.348  -3.853  -1.723
  -0.032  -3.928  -1.723
   0.291  -3.961  -1.723
   0.615  -3.950  -1.723
   0.935  -3.896  -1.723
   1.245  -3.800  -1.723
   1.540  -3.663  -1.723
   1.813  -3.488  -1.723
   2.061  -3.279  -1.723
   2.279  -3.038  -1.723
   2.463  -2.770  -1.723
   2.609  -2.481  -1.723
   2.716  -2.174  -1.723
   2.780  -1.856  -1.723
   2.616  -1.532  -1.985
   2.592  -1.205  -1.985
  -1.585  -2.630  -1.985
  -1.404  -2.903  -1.985
  -1.185  -3.147  -1.985
  -0.934  -3.357  -1.985
  -0.654  -3.528  -1.985
  -0.353  -3.656  -1.985
  -0.036  -3.739  -1.985
   0.290  -3.774  -1.985
   0.617  -3.762  -1.985
   0.940  -3.703  -1.985
   1.250  -3.597  -1.985
   1.541  -3.447  -1.985
   1.807  -3.257  -1.985
   2.043  -3.029  -1.985
   2.243  -2.770  -1.985
   2.404  -2.484  -1.985
   2.521  -2.178  -1.985
   2.592  -1.859  -1.985
   2.401  -1.532  -2.225
   2.375  -1.206  -2.225
  -1.343  -2.617  -2.225
  -1.147  -2.878  -2.225
  -0.911  -3.104  -2.225
  -0.643  -3.290  -2.225
  -0.348  -3.430  -2.225
  -0.034  -3.520  -2.225
   0.290  -3.560  -2.225
   0.617  -3.547  -2.225
   0.937  -3.481  -2.225
   1.242  -3.365  -2.225
   1.525  -3.202  -2.225
   1.778  -2.996  -2.225
   1.994  -2.751  -2.225
   2.169  -2.475  -2.225
   2.297  -2.175  -2.225
   2.375  -1.858  -2.225
   2.161  -1.532  -2.440
   2.131  -1.203  -2.440
  -1.149  -2.474  -2.440
  -0.950  -2.738  -2.440
  -0.706  -2.960  -2.440
  -0.426  -3.134  -2.440
  -0.118  -3.253  -2.440
   0.207  -3.314  -2.440
   0.537  -3.314  -2.440
   0.862  -3.253  -2.440
   1.170  -3.134  -2.440
   1.450  -2.960  -2.440
   1.694  -2.738  -2.440
   1.893  -2.474  -2.440
   2.041  -2.178  -2.440
   2.131  -1.861  -2.440
   1.899  -1.532  -2.626
   1.863  -1.204  -2.626
  -0.936  -2.319  -2.626
  -0.737  -2.582  -2.626
  -0.485  -2.796  -2.626
  -0.193  -2.950  -2.626
   0.125  -3.039  -2.626
   0.455  -3.057  -2.626
   0.780  -3.003  -2.626
   1.087  -2.881  -2.626
   1.361  -2.696  -2.626
   1.588  -2.456  -2.626
   1.758  -2.173  -2.626
   1.863  -1.860  -2.626
   1.617  -1.532  -2.782
   1.575  -1.210  -2.782
  -0.831  -1.854  -2.782
  -0.706  -2.155  -2.782
  -0.509  -2.413  -2.782
  -0.251  -2.610  -2.782
   0.050  -2.735  -2.782
   0.372  -2.777  -2.782
   0.694  -2.735  -2.782
   0.995  -2.610  -2.782
   1.253  -2.413  -2.782
   1.450  -2.155  -2.782
   1.575  -1.854  -2.782
   1.320  -1.532  -2.905
   1.263  -1.208  -2.905
  -0.576  -1.532  -2.905
  -0.519  -1.856  -2.905
  -0.354  -2.141  -2.905
  -0.102  -2.353  -2.905
   0.207  -2.466  -2.905
   0.537  -2.466  -2.905
   0.846  -2.353  -2.905
   1.098  -2.141  -2.905
   1.263  -1.856  -2.905
   1.011  -1.532  -2.994
   0.925  -1.213  -2.994
  -0.267  -1.532  -2.994
  -0.181  -1.851  -2.994
   0.053  -2.085  -2.994
   0.372  -2.171  -2.994
   0.691  -2.085  -2.994
   0.925  -1.851  -2.994
   0.693  -1.532  -3.048
   0.533  -1.254  -3.048
   0.051  -1.532  -3.048
   0.211  -1.810  -3.048
   0.533  -1.810  -3.048
   0.372  -1.532  -3.066
  -2.894   0.323   1.765
  -2.963   0.008   1.765
  -2.963  -0.314   1.765
  -2.894  -0.629   1.765
  -3.110   0.478   1.583
  -3.198   0.168   1.583
  -3.228  -0.153   1.583
  -3.198  -0.474   1.583
  -3.110  -0.784   1.583
  -2.966  -1.072   1.583
  -2.772  -1.329   1.583
  -2.534  -1.546   1.583
  -3.455   0.006   1.374
  -3.455  -0.312   1.374
  -3.404  -0.627   1.374
  -3.303  -0.929   1.374
  -3.155  -1.211   1.374
  -2.964  -1.466   1.374
  -2.734  -1.687   1.374
  -2.472  -1.868   1.374
  -3.665  -0.313   1.140
  -3.619  -0.629   1.140
  -3.527  -0.935   1.140
  -3.391  -1.224   1.140
  -3.215  -1.491   1.140
  -3.001  -1.729   1.140
  -2.756  -1.933   1.140
  -2.483  -2.100   1.140
  -3.805  -0.625   0.884
  -3.722  -0.931   0.884
  -3.598  -1.222   0.884
  -3.437  -1.495   0.884
  -3.240  -1.743   0.884
  -3.013  -1.963   0.884
  -2.758  -2.151   0.884
  -2.480  -2.304   0.884
  -2.184  -2.417   0.884
  -3.925  -0.780   0.609
  -3.828  -1.082   0.609
  -3.693  -1.368   0.609
  -3.523  -1.636   0.609
  -3.321  -1.880   0.609
  -3.090  -2.097   0.609
  -2.834  -2.283   0.609
  -2.556  -2.436   0.609
  -2.262  -2.552   0.609
  -3.822  -1.381   0.319
  -3.657  -1.654   0.319
  -3.460  -1.906   0.319
  -3.235  -2.131   0.319
  -2.983  -2.328   0.319
  -2.710  -2.493   0.319
  -2.419  -2.624   0.319
  -3.763  -1.653   0.017
  -3.573  -1.908   0.017
  -3.355  -2.139   0.017
  -3.112  -2.343   0.017
  -2.847  -2.517   0.017
  -2.563  -2.660   0.017
  -2.265  -2.768   0.017
  -3.733  -1.788  -0.292
  -3.532  -2.034  -0.292
  -3.304  -2.256  -0.292
  -3.053  -2.450  -0.292
  -2.780  -2.614  -0.292
  -2.491  -2.746  -0.292
  -2.189  -2.844  -0.292
  -3.462  -2.133  -0.606
  -3.228  -2.342  -0.606
  -2.972  -2.524  -0.606
  -2.697  -2.676  -0.606
  -2.407  -2.796  -0.606
  -3.304  -2.256  -0.919
  -3.053  -2.450  -0.919
  -2.780  -2.614  -0.919
  -2.491  -2.746  -0.919
  -2.189  -2.844  -0.919
  -3.355  -2.139  -1.229
  -3.112  -2.343  -1.229
  -2.847  -2.517  -1.229
  -2.563  -2.660  -1.229
  -2.265  -2.768  -1.229
  -2.983  -2.328  -1.531
  -2.710  -2.493  -1.531
  -2.419  -2.624  -1.531
  -2.114  -2.719  -1.531
  -2.834  -2.283  -1.821
  -2.556  -2.436  -1.821
  -2.262  -2.552  -1.821
  -1.955  -2.631  -1.821
  -2.758  -2.151  -2.096
  -2.480  -2.304  -2.096
  -2.184  -2.417  -2.096
  -1.876  -2.491  -2.096
  -1.561  -2.523  -2.096
  -2.483  -2.100  -2.352
  -2.189  -2.225  -2.352
  -1.880  -2.306  -2.352
  -1.562  -2.341  -2.352
  -2.184  -2.004  -2.586
  -1.878  -2.093  -2.586
  -1.562  -2.131  -2.586
  -1.243  -2.118  -2.586
  -1.643  -1.891  -2.795
  -1.321  -1.891  -2.795
  -1.004  -1.832  -2.795
  -1.083  -1.588  -2.977
  -0.784  -1.469  -2.977
  -3.497   0.856   1.416
  -3.451   0.508   1.416
  -3.792   1.034   1.248
  -3.792   0.678   1.248
  -3.715   0.329   1.248
  -4.052   1.211   1.047
  -4.085   0.856   1.047
  -4.052   0.501   1.047
  -3.954   0.158   1.047
  -3.795  -0.161   1.047
  -4.280   1.381   0.815
  -4.337   1.032   0.815
  -4.337   0.680   0.815
  -4.280   0.331   0.815
  -4.169  -0.003   0.815
  -4.005  -0.316   0.815
  -4.518   1.383   0.556
  -4.569   1.033   0.556
  -4.632   1.717   0.272
  -4.724   1.379   0.272
  -4.749   1.884  -0.032
  -4.743   2.216  -0.353
  -4.853   2.212  -0.687
  -4.644   2.667  -1.030
  -4.834   2.371  -1.030
  -4.576   2.789  -1.377
  -4.777   2.505  -1.377
  -4.169   3.184  -1.724
  -4.422   2.939  -1.724
  -4.644   2.667  -1.724
  -3.957   3.280  -2.067
  -4.226   3.054  -2.067
  -4.467   2.799  -2.067
  -4.677   2.517  -2.067
  -1.114   3.592  -2.401
  -1.452   3.697  -2.401
  -2.852   3.697  -2.401
  -3.190   3.592  -2.401
  -3.512   3.447  -2.401
  -3.814   3.264  -2.401
  -4.092   3.046  -2.401
  -4.342   2.796  -2.401
  -4.560   2.518  -2.401
  -2.505  -2.049  -2.401
  -1.629   3.600  -2.722
  -1.977   3.643  -2.722
  -2.327   3.643  -2.722
  -2.675   3.600  -2.722
  -3.015   3.512  -2.722
  -3.341   3.383  -2.722
  -3.649   3.214  -2.722
  -3.932   3.008  -2.722
  -4.188   2.768  -2.722
  -4.412   2.498  -2.722
  -2.675  -1.888  -2.722
  -2.327  -1.931  -2.722
  -1.977  -1.931  -2.722
  -2.240   3.479  -3.026
  -2.589   3.444  -3.026
  -2.930   3.363  -3.026
  -3.257   3.237  -3.026
  -3.564   3.068  -3.026
  -3.847   2.860  -3.026
  -4.099   2.617  -3.026
  -4.316   2.342  -3.026
  -2.589  -1.732  -3.026
  -2.240  -1.767  -3.026
  -1.889  -1.756  -3.026
  -1.544  -1.697  -3.026
  -1.209  -1.593  -3.026
  -0.891  -1.446  -3.026
  -2.592   3.239  -3.310
  -2.935   3.150  -3.310
  -3.260   3.011  -3.310
  -3.562   2.827  -3.310
  -3.834   2.601  -3.310
  -4.070   2.337  -3.310
  -4.266   2.042  -3.310
  -2.592  -1.527  -3.310
  -2.241  -1.566  -3.310
  -1.887  -1.553  -3.310
  -1.539  -1.489  -3.310
  -1.204  -1.375  -3.310
  -2.929   2.906  -3.569
  -3.248   2.754  -3.569
  -3.538   2.554  -3.569
  -3.793   2.310  -3.569
  -4.005   2.028  -3.569
  -2.590  -1.292  -3.569
  -2.240  -1.334  -3.569
  -1.888  -1.320  -3.569
  -3.317   2.398  -3.801
  -3.580   2.158  -3.801
  -3.795   1.874  -3.801
  -3.954   1.554  -3.801
  -2.681  -1.003  -3.801
  -2.330  -1.069  -3.801
  -3.349   1.990  -4.002
  -3.565   1.706  -4.002
  -3.715   1.383  -4.002
  -2.762  -0.676  -4.002
  -3.451   1.204  -4.170
  -3.497   0.856  -4.170
  -3.451   0.508  -4.170
  -3.317   0.183  -4.170
  -3.103  -0.095  -4.170
  -4.029   1.615   1.052
  -4.223   1.911   0.835
  -4.223   1.615   0.835
  -4.276   2.485   0.597
  -4.353   2.202   0.597
  -4.393   1.910   0.597
  -4.249   2.892   0.342
  -4.374   2.625   0.342
  -4.465   2.346   0.342
  -4.520   2.057   0.342
  -4.216   3.157   0.073
  -4.369   2.903   0.073
  -4.491   2.633   0.073
  -4.579   2.350   0.073
  -4.632   2.059   0.073
  -4.138   3.392  -0.207
  -4.314   3.156  -0.207
  -4.461   2.901  -0.207
  -4.578   2.630  -0.207
  -4.662   2.348  -0.207
  -3.888   3.716  -0.495
  -4.099   3.510  -0.495
  -4.286   3.282  -0.495
  -4.446   3.033  -0.495
  -4.576   2.769  -0.495
  -4.675   2.491  -0.495
  -3.579   3.964  -0.786
  -3.817   3.796  -0.786
  -4.034   3.601  -0.786
  -4.229   3.384  -0.786
  -4.397   3.146  -0.786
  -4.539   2.891  -0.786
  -4.650   2.622  -0.786
  -3.133   4.171  -1.077
  -3.402   4.048  -1.077
  -3.654   3.896  -1.077
  -3.888   3.716  -1.077
  -4.099   3.510  -1.077
  -4.286   3.282  -1.077
  -4.446   3.033  -1.077
  -4.576   2.769  -1.077
  -2.923   4.191  -1.365
  -3.200   4.091  -1.365
  -3.463   3.958  -1.365
  -3.710   3.796  -1.365
  -3.935   3.607  -1.365
  -4.138   3.392  -1.365
  -4.314   3.156  -1.365
  -2.492   4.199  -1.645
  -2.783   4.146  -1.645
  -3.066   4.058  -1.645
  -3.336   3.936  -1.645
  -3.590   3.783  -1.645
  -3.823   3.600  -1.645
  -4.033   3.390  -1.645
  -4.216   3.157  -1.645
  -2.049   4.101  -1.914
  -2.343   4.101  -1.914
  -2.635   4.064  -1.914
  -2.920   3.991  -1.914
  -3.193   3.883  -1.914
  -3.451   3.741  -1.914
  -3.689   3.568  -1.914
  -3.904   3.367  -1.914
  -1.686   3.905  -2.169
  -1.976   3.953  -2.169
  -2.270   3.963  -2.169
  -2.562   3.934  -2.169
  -2.848   3.866  -2.169
  -3.123   3.760  -2.169
  -3.381   3.619  -2.169
  -1.974   3.784  -2.407
  -2.270   3.794  -2.407
  -2.565   3.762  -2.407
   0.012   3.038  -2.303
  -0.226   3.206  -2.303
  -0.481   3.348  -2.303
   0.192   2.858  -2.594
  -0.031   3.051  -2.594
  -0.275   3.218  -2.594
  -0.536   3.355  -2.594
  -0.811   3.462  -2.594
  -1.096   3.537  -2.594
   0.333   2.634  -2.882
   0.130   2.849  -2.882
  -0.095   3.038  -2.882
  -0.342   3.200  -2.882