 $system timlim=999888777
         mwords=100 $end
 $contrl exetyp=run
         runtyp=energy scftyp=rhf
         icharg=-1 mult=1 units=angs coord=unique
         maxit=50 ispher=1 qmttol=1d-6 icut=12 itol=22 $end
 $scf    dirscf=.t. diis=.t. soscf=.f.
         fdiff=.f. conv=1d-6
         npreo(1)=0,-1,1,9999 $end
 $elpot  iepot=1 where=points $end
 $basis  gbasis=n311 ngauss=6
         ndfunc=1 npfunc=1 diffsp=.t. diffs=.t. $end
 $DATA
TS1a_hfd_irc200_all_revmov.pdb
C1
P     15.0    -0.05000  -0.03000  -0.00900 
O      8.0    -0.11900  -0.10100   1.54500 
O      8.0     0.91700   0.84700  -0.64300 
F      9.0     0.36900  -1.53500  -0.24000 
O      8.0    -1.48400  -0.15100  -0.60700 
C      6.0    -2.15200   0.85600  -1.37700 
H      1.0    -2.22000   1.75300  -0.77500 
H      1.0    -1.59400   1.03000  -2.28900 
H      1.0    -3.11700   0.43100  -1.61700 
C      6.0     0.27000   0.94500   2.44400 
H      1.0     0.08500   0.54800   3.43300 
H      1.0     1.33000   1.13700   2.32300 
H      1.0    -0.32200   1.82300   2.21900 
O      8.0    -1.38200   2.64500   0.77300 
H      1.0    -0.80500   3.29700   0.39200 
 $END
 $POINTS
ANGS 3059
   2.522  -1.121   1.747
  -2.217  -2.065   1.423
  -1.945  -2.321   1.423
   2.714  -1.125   1.423
  -2.116  -2.361   1.081
   2.974  -0.775   1.081
   3.042  -0.405   1.081
   3.081  -0.772   0.725
   3.146  -0.404   0.725
   3.144  -0.773   0.360
   3.167  -0.764  -0.009
   1.190  -0.746  -2.982
  -0.239  -1.103  -3.124
   0.139  -1.103  -3.124
   0.495  -0.974  -3.124
   0.785  -0.731  -3.124
   0.317  -0.666  -3.226
   0.586  -0.397  -3.226
  -1.371  -1.635   3.525
  -1.109  -1.816   3.525
  -0.821  -1.952   3.525
  -0.515  -2.041   3.525
  -0.199  -2.079   3.525
   0.120  -2.066   3.525
  -2.164  -0.883   3.291
  -2.028  -1.172   3.291
  -1.852  -1.439   3.291
  -1.638  -1.677   3.291
  -1.393  -1.881   3.291
  -1.120  -2.048   3.291
  -0.826  -2.173   3.291
  -0.517  -2.254   3.291
  -0.199  -2.289   3.291
   0.120  -2.277   3.291
   0.435  -2.219   3.291
   0.737  -2.116   3.291
   1.021  -1.970   3.291
  -2.442  -0.573   3.035
  -2.359  -0.879   3.035
  -2.235  -1.170   3.035
  -2.074  -1.443   3.035
  -1.877  -1.691   3.035
  -1.650  -1.911   3.035
  -1.395  -2.099   3.035
  -1.117  -2.252   3.035
  -0.821  -2.365   3.035
  -0.513  -2.439   3.035
  -0.198  -2.471   3.035
   0.118  -2.460   3.035
   0.431  -2.407   3.035
   0.733  -2.313   3.035
   1.020  -2.180   3.035
   1.287  -2.010   3.035
  -2.642  -0.101   2.760
  -2.622  -0.417   2.760
  -2.562  -0.728   2.760
  -2.465  -1.030   2.760
  -2.330  -1.316   2.760
  -2.160  -1.584   2.760
  -1.958  -1.828   2.760
  -1.727  -2.045   2.760
  -1.471  -2.231   2.760
  -1.193  -2.384   2.760
  -0.899  -2.500   2.760
  -0.592  -2.579   2.760
  -0.277  -2.619   2.760
   0.039  -2.619   2.760
   0.354  -2.579   2.760
   0.661  -2.500   2.760
   0.955  -2.384   2.760
   1.233  -2.231   2.760
   1.489  -2.045   2.760
   1.720  -1.828   2.760
  -2.762  -0.101   2.470
  -2.743  -0.420   2.470
  -2.685  -0.733   2.470
  -2.590  -1.038   2.470
  -2.459  -1.329   2.470
  -2.294  -1.602   2.470
  -2.097  -1.854   2.470
  -1.872  -2.079   2.470
  -1.620  -2.276   2.470
  -1.347  -2.441   2.470
  -1.056  -2.572   2.470
  -0.751  -2.667   2.470
  -0.438  -2.725   2.470
  -0.119  -2.744   2.470
   0.200  -2.725   2.470
   0.513  -2.667   2.470
   0.818  -2.572   2.470
   1.109  -2.441   2.470
   1.382  -2.276   2.470
   1.634  -2.079   2.470
   1.859  -1.854   2.470
   2.056  -1.602   2.470
  -2.830   0.216   2.168
  -2.849  -0.101   2.168
  -2.830  -0.418   2.168
  -2.775  -0.731   2.168
  -2.684  -1.035   2.168
  -2.558  -1.326   2.168
  -2.400  -1.601   2.168
  -2.210  -1.856   2.168
  -1.992  -2.087   2.168
  -1.749  -2.291   2.168
  -1.484  -2.465   2.168
  -1.200  -2.608   2.168
  -0.902  -2.716   2.168
  -0.593  -2.789   2.168
   1.972  -1.856   2.168
   2.162  -1.601   2.168
  -2.861   0.373   1.859
  -2.897   0.058   1.859
  -2.897  -0.260   1.859
  -2.861  -0.575   1.859
  -2.789  -0.885   1.859
  -2.682  -1.184   1.859
  -2.542  -1.469   1.859
  -2.370  -1.736   1.859
  -2.169  -1.982   1.859
  -1.941  -2.204   1.859
  -1.690  -2.398   1.859
  -1.417  -2.562   1.859
   2.378  -1.329   1.859
   3.440   0.847   0.572
   3.420   1.163   0.572
   3.360   1.474   0.572
   3.263   1.776   0.572
   3.128   2.062   0.572
   2.958   2.330   0.572
   2.756   2.574   0.572
   2.525   2.791   0.572
   2.269   2.977   0.572
   1.991   3.130   0.572
   3.263  -0.082   0.572
   3.360   0.220   0.572
   3.420   0.531   0.572
   3.560   0.847   0.282
   3.541   1.166   0.282
   3.483   1.479   0.282
   3.388   1.784   0.282
   3.257   2.075   0.282
   3.092   2.348   0.282
   2.895   2.600   0.282
   2.670   2.825   0.282
   2.418   3.022   0.282
   2.145   3.187   0.282
   1.854   3.318   0.282
   3.257  -0.381   0.282
   3.388  -0.090   0.282
   3.483   0.215   0.282
   3.541   0.528   0.282
   3.647   0.847  -0.020
   3.628   1.164  -0.020
   3.573   1.477  -0.020
   3.482   1.781  -0.020
   3.356   2.072  -0.020
   3.198   2.347  -0.020
   3.008   2.602  -0.020
   2.790   2.833  -0.020
   2.547   3.037  -0.020
   2.282   3.211  -0.020
   1.998   3.354  -0.020
   3.198  -0.653  -0.020
   3.356  -0.378  -0.020
   3.482  -0.087  -0.020
   3.573   0.217  -0.020
   3.628   0.530  -0.020
   3.699   0.847  -0.329
   3.681   1.164  -0.329
   3.627   1.477  -0.329
   3.538   1.782  -0.329
   3.414   2.075  -0.329
   3.258   2.351  -0.329
   3.071   2.608  -0.329
   2.856   2.842  -0.329
   2.616   3.050  -0.329
   2.354   3.230  -0.329
   2.073   3.378  -0.329
   1.777   3.493  -0.329
   3.258  -0.657  -0.329
   3.414  -0.381  -0.329
   3.538  -0.088  -0.329
   3.627   0.217  -0.329
   3.681   0.530  -0.329
   3.717   0.847  -0.643
   3.699   1.161  -0.643
   3.647   1.470  -0.643
   3.560   1.772  -0.643
   3.440   2.062  -0.643
   3.288   2.337  -0.643
   3.106   2.593  -0.643
   2.897   2.827  -0.643
   2.663   3.036  -0.643
   2.407   3.218  -0.643
   2.132   3.370  -0.643
   1.842   3.490  -0.643
   3.288  -0.643  -0.643
   3.440  -0.368  -0.643
   3.560  -0.078  -0.643
   3.647   0.224  -0.643
   3.699   0.533  -0.643
   3.699   0.847  -0.956
   3.681   1.164  -0.956
   3.627   1.477  -0.956
   3.538   1.782  -0.956
   3.414   2.075  -0.956
   3.258   2.351  -0.956
   3.071   2.608  -0.956
   2.856   2.842  -0.956
   2.616   3.050  -0.956
   2.354   3.230  -0.956
   2.073   3.378  -0.956
   1.777   3.493  -0.956
   1.470   3.574  -0.956
   3.258  -0.657  -0.956
   3.414  -0.381  -0.956
   3.538  -0.088  -0.956
   3.627   0.217  -0.956
   3.681   0.530  -0.956
   3.647   0.847  -1.266
   3.628   1.164  -1.266
   3.573   1.477  -1.266
   3.482   1.781  -1.266
   3.356   2.072  -1.266
   3.198   2.347  -1.266
   3.008   2.602  -1.266
   2.790   2.833  -1.266
   2.547   3.037  -1.266
   2.282   3.211  -1.266
   1.998   3.354  -1.266
   1.700   3.462  -1.266
   1.391   3.535  -1.266
   3.008  -0.908  -1.266
   3.198  -0.653  -1.266
   3.356  -0.378  -1.266
   3.482  -0.087  -1.266
   3.573   0.217  -1.266
   3.628   0.530  -1.266
   3.560   0.847  -1.568
   3.541   1.166  -1.568
   3.483   1.479  -1.568
   3.388   1.784  -1.568
   3.257   2.075  -1.568
   3.092   2.348  -1.568
   2.895   2.600  -1.568
   2.670   2.825  -1.568
   2.418   3.022  -1.568
   2.145   3.187  -1.568
   1.854   3.318  -1.568
   1.549   3.413  -1.568
   1.236   3.471  -1.568
   0.917   3.490  -1.568
   2.895  -0.906  -1.568
   3.092  -0.654  -1.568
   3.257  -0.381  -1.568
   3.388  -0.090  -1.568
   3.483   0.215  -1.568
   3.541   0.528  -1.568
   3.440   0.847  -1.858
   3.420   1.163  -1.858
   3.360   1.474  -1.858
   3.263   1.776  -1.858
   3.128   2.062  -1.858
   2.958   2.330  -1.858
   2.756   2.574  -1.858
   2.525   2.791  -1.858
   2.269   2.977  -1.858
   1.991   3.130  -1.858
   1.697   3.246  -1.858
   1.390   3.325  -1.858
   1.075   3.365  -1.858
   0.759   3.365  -1.858
   2.756  -0.880  -1.858
   2.958  -0.636  -1.858
   3.128  -0.368  -1.858
   3.263  -0.082  -1.858
   3.360   0.220  -1.858
   3.420   0.531  -1.858
   3.288   0.847  -2.133
   3.267   1.163  -2.133
   3.204   1.473  -2.133
   3.100   1.773  -2.133
   2.957   2.055  -2.133
   2.778   2.316  -2.133
   2.565   2.551  -2.133
   2.323   2.756  -2.133
   2.056   2.926  -2.133
   1.769   3.059  -2.133
   1.467   3.153  -2.133
   1.154   3.206  -2.133
   0.838   3.217  -2.133
   0.523   3.185  -2.133
   0.215   3.111  -2.133
   2.565  -0.857  -2.133
   2.778  -0.622  -2.133
   2.957  -0.361  -2.133
   3.100  -0.079  -2.133
   3.204   0.221  -2.133
   3.267   0.531  -2.133
   3.106   0.847  -2.389
   3.083   1.166  -2.389
   3.013   1.478  -2.389
   2.899   1.776  -2.389
   2.743   2.055  -2.389
   2.547   2.308  -2.389
   2.317   2.530  -2.389
   2.057   2.716  -2.389
   1.773   2.862  -2.389
   1.471   2.965  -2.389
   1.156   3.023  -2.389
   0.837   3.035  -2.389
   0.519   3.000  -2.389
   0.210   2.919  -2.389
   2.317  -0.836  -2.389
   2.547  -0.614  -2.389
   2.743  -0.361  -2.389
   2.899  -0.082  -2.389
   3.013   0.216  -2.389
   3.083   0.528  -2.389
   2.897   0.847  -2.623
   2.871   1.165  -2.623
   2.795   1.474  -2.623
   2.670   1.767  -2.623
   2.500   2.036  -2.623
   2.289   2.275  -2.623
   2.042   2.476  -2.623
   1.766   2.636  -2.623
   1.468   2.749  -2.623
   1.156   2.812  -2.623
   0.837   2.825  -2.623
   0.521   2.787  -2.623
   2.042  -0.782  -2.623
   2.289  -0.581  -2.623
   2.500  -0.342  -2.623
   2.670  -0.073  -2.623
   2.795   0.220  -2.623
   2.871   0.529  -2.623
   2.663   0.847  -2.832
   2.633   1.168  -2.832
   2.545   1.478  -2.832
   2.401   1.766  -2.832
   2.207   2.023  -2.832
   1.969   2.240  -2.832
   1.695   2.410  -2.832
   1.395   2.526  -2.832
   1.078   2.585  -2.832
   0.756   2.585  -2.832
   1.695  -0.716  -2.832
   1.969  -0.546  -2.832
   2.207  -0.329  -2.832
   2.401  -0.072  -2.832
   2.545   0.216  -2.832
   2.633   0.526  -2.832
   2.407   0.847  -3.014
   2.372   1.167  -3.014
   2.269   1.473  -3.014
   2.103   1.749  -3.014
   1.881   1.982  -3.014
   1.615   2.163  -3.014
   1.316   2.282  -3.014
   0.998   2.335  -3.014
   0.676   2.317  -3.014
   1.316  -0.588  -3.014
   1.615  -0.469  -3.014
   1.881  -0.288  -3.014
   2.103  -0.055  -3.014
   2.269   0.221  -3.014
   2.372   0.527  -3.014
   2.132   0.847  -3.166
   2.090   1.161  -3.166
   1.969   1.454  -3.166
   1.776   1.706  -3.166
   1.524   1.899  -3.166
   1.231   2.020  -3.166
   0.917   2.062  -3.166
   0.917  -0.368  -3.166
   1.231  -0.326  -3.166
   1.524  -0.205  -3.166
   1.776  -0.012  -3.166
   1.969   0.240  -3.166
   2.090   0.533  -3.166
   1.842   0.847  -3.286
   1.786   1.163  -3.286
   1.625   1.441  -3.286
   1.379   1.648  -3.286
   1.078   1.758  -3.286
   0.756   1.758  -3.286
   0.756  -0.064  -3.286
   1.078  -0.064  -3.286
   1.379   0.046  -3.286
   1.625   0.253  -3.286
   1.786   0.531  -3.286
   1.540   0.847  -3.373
   1.457   1.159  -3.373
   1.229   1.387  -3.373
   0.917   1.470  -3.373
   0.917   0.224  -3.373
   1.229   0.307  -3.373
   1.457   0.535  -3.373
   1.231   0.847  -3.425
   1.074   1.119  -3.425
   0.760   1.119  -3.425
   0.760   0.575  -3.425
   1.074   0.575  -3.425
   0.917   0.847  -3.443
   0.369  -2.780   2.346
   0.691  -2.738   2.346
   0.992  -2.613   2.346
   1.250  -2.416   2.346
  -0.196  -2.953   2.190
   0.122  -3.042   2.190
   0.452  -3.060   2.190
   0.777  -3.006   2.190
   1.084  -2.884   2.190
   1.358  -2.699   2.190
   1.585  -2.459   2.190
   1.755  -2.176   2.190
  -0.953  -2.741   2.004
  -0.709  -2.963   2.004
  -0.429  -3.137   2.004
  -0.121  -3.256   2.004
   0.204  -3.317   2.004
   0.534  -3.317   2.004
   0.859  -3.256   2.004
   1.167  -3.137   2.004
   1.447  -2.963   2.004
   1.691  -2.741   2.004
   1.890  -2.477   2.004
   2.038  -2.181   2.004
   2.128  -1.864   2.004
   2.398  -1.535   1.789
  -1.346  -2.620   1.789
  -1.150  -2.881   1.789
  -0.914  -3.107   1.789
  -0.646  -3.293   1.789
  -0.351  -3.433   1.789
  -0.037  -3.523   1.789
   0.287  -3.563   1.789
   0.614  -3.550   1.789
   0.934  -3.484   1.789
   1.239  -3.368   1.789
   1.522  -3.205   1.789
   1.775  -2.999   1.789
   1.991  -2.754   1.789
   2.166  -2.478   1.789
   2.294  -2.178   1.789
   2.372  -1.861   1.789
   2.613  -1.535   1.549
  -1.588  -2.633   1.549
  -1.407  -2.906   1.549
  -1.188  -3.150   1.549
  -0.937  -3.360   1.549
  -0.657  -3.531   1.549
  -0.356  -3.659   1.549
  -0.039  -3.742   1.549
   0.287  -3.777   1.549
   0.614  -3.765   1.549
   0.937  -3.706   1.549
   1.247  -3.600   1.549
   1.538  -3.450   1.549
   1.804  -3.260   1.549
   2.040  -3.032   1.549
   2.240  -2.773   1.549
   2.401  -2.487   1.549
   2.518  -2.181   1.549
   2.589  -1.862   1.549
   2.799  -1.535   1.287
   2.777  -1.211   1.287
  -1.800  -2.631   1.287
  -1.634  -2.910   1.287
  -1.433  -3.165   1.287
  -1.200  -3.391   1.287
  -0.939  -3.583   1.287
  -0.654  -3.739   1.287
  -0.351  -3.856   1.287
  -0.035  -3.931   1.287
   0.288  -3.964   1.287
   0.612  -3.953   1.287
   0.932  -3.899   1.287
   1.242  -3.803   1.287
   1.537  -3.666   1.287
   1.810  -3.491   1.287
   2.058  -3.282   1.287
   2.276  -3.041   1.287
   2.460  -2.773   1.287
   2.606  -2.484   1.287
   2.713  -2.177   1.287
   2.777  -1.859   1.287
   2.955  -1.535   1.005
   2.934  -1.211   1.005
  -2.035  -2.487   1.005
  -1.897  -2.781   1.005
  -1.723  -3.055   1.005
  -1.516  -3.305   1.005
  -1.279  -3.527   1.005
  -1.017  -3.718   1.005
  -0.732  -3.875   1.005
  -0.430  -3.994   1.005
  -0.116  -4.075   1.005
   0.207  -4.116   1.005
   0.531  -4.116   1.005
   0.854  -4.075   1.005
   1.168  -3.994   1.005
   1.470  -3.875   1.005
   1.755  -3.718   1.005
   2.017  -3.527   1.005
   2.254  -3.305   1.005
   2.461  -3.055   1.005
   2.635  -2.781   1.005
   2.773  -2.487   1.005
   2.874  -2.178   1.005
   2.934  -1.859   1.005
   3.078  -1.535   0.708
   3.058  -1.208   0.708
  -2.030  -2.794   0.708
  -1.860  -3.074   0.708
  -1.659  -3.331   0.708
  -1.427  -3.563   0.708
  -1.170  -3.764   0.708
  -0.890  -3.934   0.708
  -0.592  -4.068   0.708
  -0.279  -4.165   0.708
   0.042  -4.224   0.708
   0.369  -4.244   0.708
   0.696  -4.224   0.708
   1.017  -4.165   0.708
   1.330  -4.068   0.708
   1.628  -3.934   0.708
   1.908  -3.764   0.708
   2.165  -3.563   0.708
   2.397  -3.331   0.708
   2.598  -3.074   0.708
   2.768  -2.794   0.708
   2.902  -2.496   0.708
   2.999  -2.183   0.708
   3.058  -1.862   0.708
   3.167  -1.535   0.399
   3.148  -1.210   0.399
  -2.131  -2.791   0.399
  -1.969  -3.073   0.399
  -1.774  -3.334   0.399
  -1.551  -3.570   0.399
  -1.302  -3.779   0.399
  -1.030  -3.958   0.399
  -0.739  -4.104   0.399
  -0.433  -4.215   0.399
  -0.117  -4.291   0.399
   0.206  -4.328   0.399
   0.532  -4.328   0.399
   0.855  -4.291   0.399
   1.171  -4.215   0.399
   1.477  -4.104   0.399
   1.768  -3.958   0.399
   2.040  -3.779   0.399
   2.289  -3.570   0.399
   2.512  -3.334   0.399
   2.707  -3.073   0.399
   2.869  -2.791   0.399
   2.998  -2.492   0.399
   3.092  -2.180   0.399
   3.148  -1.860   0.399
   3.221  -1.535   0.081
   3.202  -1.210   0.081
   3.147  -0.889   0.081
  -2.114  -2.937   0.081
  -1.938  -3.211   0.081
  -1.732  -3.463   0.081
  -1.499  -3.690   0.081
  -1.241  -3.889   0.081
  -0.962  -4.057   0.081
  -0.666  -4.193   0.081
  -0.356  -4.293   0.081
  -0.037  -4.358   0.081
   0.288  -4.386   0.081
   0.613  -4.376   0.081
   0.935  -4.330   0.081
   1.250  -4.247   0.081
   1.554  -4.129   0.081
   1.842  -3.977   0.081
   2.111  -3.793   0.081
   2.357  -3.580   0.081
   2.577  -3.340   0.081
   2.768  -3.077   0.081
   2.928  -2.793   0.081
   3.055  -2.493   0.081
   3.147  -2.181   0.081
   3.202  -1.860   0.081
   3.239  -1.535  -0.240
   3.221  -1.214  -0.240
   3.167  -0.896  -0.240
  -2.061  -3.062  -0.240
  -1.875  -3.324  -0.240
  -1.660  -3.564  -0.240
  -1.420  -3.779  -0.240
  -1.158  -3.965  -0.240
  -0.876  -4.121  -0.240
  -0.579  -4.244  -0.240
  -0.270  -4.333  -0.240
   0.048  -4.387  -0.240
   0.369  -4.405  -0.240
   0.690  -4.387  -0.240
   1.008  -4.333  -0.240
   1.317  -4.244  -0.240
   1.614  -4.121  -0.240
   1.896  -3.965  -0.240
   2.158  -3.779  -0.240
   2.398  -3.564  -0.240
   2.613  -3.324  -0.240
   2.799  -3.062  -0.240
   2.955  -2.780  -0.240
   3.078  -2.483  -0.240
   3.167  -2.174  -0.240
   3.221  -1.856  -0.240
   3.221  -1.535  -0.561
   3.202  -1.210  -0.561
   3.147  -0.889  -0.561
  -2.114  -2.937  -0.561
  -1.938  -3.211  -0.561
  -1.732  -3.463  -0.561
  -1.499  -3.690  -0.561
  -1.241  -3.889  -0.561
  -0.962  -4.057  -0.561
  -0.666  -4.193  -0.561
  -0.356  -4.293  -0.561
  -0.037  -4.358  -0.561
   0.288  -4.386  -0.561
   0.613  -4.376  -0.561
   0.935  -4.330  -0.561
   1.250  -4.247  -0.561
   1.554  -4.129  -0.561
   1.842  -3.977  -0.561
   2.111  -3.793  -0.561
   2.357  -3.580  -0.561
   2.577  -3.340  -0.561
   2.768  -3.077  -0.561
   2.928  -2.793  -0.561
   3.055  -2.493  -0.561
   3.147  -2.181  -0.561
   3.202  -1.860  -0.561
   3.167  -1.535  -0.879
   3.148  -1.210  -0.879
  -1.969  -3.073  -0.879
  -1.774  -3.334  -0.879
  -1.551  -3.570  -0.879
  -1.302  -3.779  -0.879
  -1.030  -3.958  -0.879
  -0.739  -4.104  -0.879
  -0.433  -4.215  -0.879
  -0.117  -4.291  -0.879
   0.206  -4.328  -0.879
   0.532  -4.328  -0.879
   0.855  -4.291  -0.879
   1.171  -4.215  -0.879
   1.477  -4.104  -0.879
   1.768  -3.958  -0.879
   2.040  -3.779  -0.879
   2.289  -3.570  -0.879
   2.512  -3.334  -0.879
   2.707  -3.073  -0.879
   2.869  -2.791  -0.879
   2.998  -2.492  -0.879
   3.092  -2.180  -0.879
   3.148  -1.860  -0.879
   3.078  -1.535  -1.188
   3.058  -1.208  -1.188
  -1.860  -3.074  -1.188
  -1.659  -3.331  -1.188
  -1.427  -3.563  -1.188
  -1.170  -3.764  -1.188
  -0.890  -3.934  -1.188
  -0.592  -4.068  -1.188
  -0.279  -4.165  -1.188
   0.042  -4.224  -1.188
   0.369  -4.244  -1.188
   0.696  -4.224  -1.188
   1.017  -4.165  -1.188
   1.330  -4.068  -1.188
   1.628  -3.934  -1.188
   1.908  -3.764  -1.188
   2.165  -3.563  -1.188
   2.397  -3.331  -1.188
   2.598  -3.074  -1.188
   2.768  -2.794  -1.188
   2.902  -2.496  -1.188
   2.999  -2.183  -1.188
   3.058  -1.862  -1.188
   2.955  -1.535  -1.485
   2.934  -1.211  -1.485
  -1.897  -2.781  -1.485
  -1.723  -3.055  -1.485
  -1.516  -3.305  -1.485
  -1.279  -3.527  -1.485
  -1.017  -3.718  -1.485
  -0.732  -3.875  -1.485
  -0.430  -3.994  -1.485
  -0.116  -4.075  -1.485
   0.207  -4.116  -1.485
   0.531  -4.116  -1.485
   0.854  -4.075  -1.485
   1.168  -3.994  -1.485
   1.470  -3.875  -1.485
   1.755  -3.718  -1.485
   2.017  -3.527  -1.485
   2.254  -3.305  -1.485
   2.461  -3.055  -1.485
   2.635  -2.781  -1.485
   2.773  -2.487  -1.485
   2.874  -2.178  -1.485
   2.934  -1.859  -1.485
   2.799  -1.535  -1.767
   2.777  -1.211  -1.767
  -1.634  -2.910  -1.767
  -1.433  -3.165  -1.767
  -1.200  -3.391  -1.767
  -0.939  -3.583  -1.767
  -0.654  -3.739  -1.767
  -0.351  -3.856  -1.767
  -0.035  -3.931  -1.767
   0.288  -3.964  -1.767
   0.612  -3.953  -1.767
   0.932  -3.899  -1.767
   1.242  -3.803  -1.767
   1.537  -3.666  -1.767
   1.810  -3.491  -1.767
   2.058  -3.282  -1.767
   2.276  -3.041  -1.767
   2.460  -2.773  -1.767
   2.606  -2.484  -1.767
   2.713  -2.177  -1.767
   2.777  -1.859  -1.767
   2.613  -1.535  -2.029
   2.589  -1.208  -2.029
  -1.588  -2.633  -2.029
  -1.407  -2.906  -2.029
  -1.188  -3.150  -2.029
  -0.937  -3.360  -2.029
  -0.657  -3.531  -2.029
  -0.356  -3.659  -2.029
  -0.039  -3.742  -2.029
   0.287  -3.777  -2.029
   0.614  -3.765  -2.029
   0.937  -3.706  -2.029
   1.247  -3.600  -2.029
   1.538  -3.450  -2.029
   1.804  -3.260  -2.029
   2.040  -3.032  -2.029
   2.240  -2.773  -2.029
   2.401  -2.487  -2.029
   2.518  -2.181  -2.029
   2.589  -1.862  -2.029
   2.398  -1.535  -2.269
   2.372  -1.209  -2.269
  -1.346  -2.620  -2.269
  -1.150  -2.881  -2.269
  -0.914  -3.107  -2.269
  -0.646  -3.293  -2.269
  -0.351  -3.433  -2.269
  -0.037  -3.523  -2.269
   0.287  -3.563  -2.269
   0.614  -3.550  -2.269
   0.934  -3.484  -2.269
   1.239  -3.368  -2.269
   1.522  -3.205  -2.269
   1.775  -2.999  -2.269
   1.991  -2.754  -2.269
   2.166  -2.478  -2.269
   2.294  -2.178  -2.269
   2.372  -1.861  -2.269
   2.158  -1.535  -2.484
   2.128  -1.206  -2.484
  -1.152  -2.477  -2.484
  -0.953  -2.741  -2.484
  -0.709  -2.963  -2.484
  -0.429  -3.137  -2.484
  -0.121  -3.256  -2.484
   0.204  -3.317  -2.484
   0.534  -3.317  -2.484
   0.859  -3.256  -2.484
   1.167  -3.137  -2.484
   1.447  -2.963  -2.484
   1.691  -2.741  -2.484
   1.890  -2.477  -2.484
   2.038  -2.181  -2.484
   2.128  -1.864  -2.484
   1.896  -1.535  -2.670
   1.860  -1.207  -2.670
   1.755  -0.894  -2.670
  -1.078  -2.023  -2.670
  -0.939  -2.322  -2.670
  -0.740  -2.585  -2.670
  -0.488  -2.799  -2.670
  -0.196  -2.953  -2.670
   0.122  -3.042  -2.670
   0.452  -3.060  -2.670
   0.777  -3.006  -2.670
   1.084  -2.884  -2.670
   1.358  -2.699  -2.670
   1.585  -2.459  -2.670
   1.755  -2.176  -2.670
   1.860  -1.863  -2.670
   1.614  -1.535  -2.826
   1.572  -1.213  -2.826
   1.447  -0.912  -2.826
  -0.834  -1.857  -2.826
  -0.709  -2.158  -2.826
  -0.512  -2.416  -2.826
  -0.254  -2.613  -2.826
   0.047  -2.738  -2.826
   0.369  -2.780  -2.826
   0.691  -2.738  -2.826
   0.992  -2.613  -2.826
   1.250  -2.416  -2.826
   1.447  -2.158  -2.826
   1.572  -1.857  -2.826
   1.317  -1.535  -2.949
   1.260  -1.211  -2.949
  -0.579  -1.535  -2.949
  -0.522  -1.859  -2.949
  -0.357  -2.144  -2.949
  -0.105  -2.356  -2.949
   0.204  -2.469  -2.949
   0.534  -2.469  -2.949
   0.843  -2.356  -2.949
   1.095  -2.144  -2.949
   1.260  -1.859  -2.949
   1.008  -1.535  -3.038
   0.922  -1.216  -3.038
  -0.270  -1.535  -3.038
  -0.184  -1.854  -3.038
   0.050  -2.088  -3.038
   0.369  -2.174  -3.038
   0.688  -2.088  -3.038
   0.922  -1.854  -3.038
   0.690  -1.535  -3.092
   0.530  -1.257  -3.092
   0.208  -1.257  -3.092
   0.048  -1.535  -3.092
   0.208  -1.813  -3.092
   0.530  -1.813  -3.092
   0.369  -1.535  -3.110
  -2.896   0.325   1.764
  -2.965   0.010   1.764
  -2.965  -0.312   1.764
  -2.896  -0.627   1.764
  -3.112   0.480   1.582
  -3.200   0.170   1.582
  -3.230  -0.151   1.582
  -3.200  -0.472   1.582
  -3.112  -0.782   1.582
  -2.968  -1.070   1.582
  -2.774  -1.327   1.582
  -2.536  -1.544   1.582
  -3.457   0.008   1.373
  -3.457  -0.310   1.373
  -3.406  -0.625   1.373
  -3.305  -0.927   1.373
  -3.157  -1.209   1.373
  -2.966  -1.464   1.373
  -2.736  -1.685   1.373
  -2.474  -1.866   1.373
  -3.667  -0.311   1.139
  -3.621  -0.627   1.139
  -3.529  -0.933   1.139
  -3.393  -1.222   1.139
  -3.217  -1.489   1.139
  -3.003  -1.727   1.139
  -2.758  -1.931   1.139
  -2.485  -2.098   1.139
  -3.807  -0.623   0.883
  -3.724  -0.929   0.883
  -3.600  -1.220   0.883
  -3.439  -1.493   0.883
  -3.242  -1.741   0.883
  -3.015  -1.961   0.883
  -2.760  -2.149   0.883
  -2.482  -2.302   0.883
  -2.186  -2.415   0.883
  -3.927  -0.778   0.608
  -3.830  -1.080   0.608
  -3.695  -1.366   0.608
  -3.525  -1.634   0.608
  -3.323  -1.878   0.608
  -3.092  -2.095   0.608
  -2.836  -2.281   0.608
  -2.558  -2.434   0.608
  -2.264  -2.550   0.608
  -3.824  -1.379   0.318
  -3.659  -1.652   0.318
  -3.462  -1.904   0.318
  -3.237  -2.129   0.318
  -2.985  -2.326   0.318
  -2.712  -2.491   0.318
  -2.421  -2.622   0.318
  -3.765  -1.651   0.016
  -3.575  -1.906   0.016
  -3.357  -2.137   0.016
  -3.114  -2.341   0.016
  -2.849  -2.515   0.016
  -2.565  -2.658   0.016
  -2.267  -2.766   0.016
  -3.735  -1.786  -0.293
  -3.534  -2.032  -0.293
  -3.306  -2.254  -0.293
  -3.055  -2.448  -0.293
  -2.782  -2.612  -0.293
  -2.493  -2.744  -0.293
  -2.191  -2.842  -0.293
  -3.464  -2.131  -0.607
  -3.230  -2.340  -0.607
  -2.974  -2.522  -0.607
  -2.699  -2.674  -0.607
  -2.409  -2.794  -0.607
  -3.306  -2.254  -0.920
  -3.055  -2.448  -0.920
  -2.782  -2.612  -0.920
  -2.493  -2.744  -0.920
  -2.191  -2.842  -0.920
  -3.357  -2.137  -1.230
  -3.114  -2.341  -1.230
  -2.849  -2.515  -1.230
  -2.565  -2.658  -1.230
  -2.267  -2.766  -1.230
  -2.985  -2.326  -1.532
  -2.712  -2.491  -1.532
  -2.421  -2.622  -1.532
  -2.116  -2.717  -1.532
  -2.836  -2.281  -1.822
  -2.558  -2.434  -1.822
  -2.264  -2.550  -1.822
  -1.957  -2.629  -1.822
  -2.760  -2.149  -2.097
  -2.482  -2.302  -2.097
  -2.186  -2.415  -2.097
  -1.878  -2.489  -2.097
  -2.485  -2.098  -2.353
  -2.191  -2.223  -2.353
  -1.882  -2.304  -2.353
  -1.564  -2.339  -2.353
  -2.186  -2.002  -2.587
  -1.880  -2.091  -2.587
  -1.564  -2.129  -2.587
  -1.245  -2.116  -2.587
  -1.645  -1.889  -2.796
  -1.323  -1.889  -2.796
  -1.006  -1.830  -2.796
  -1.085  -1.586  -2.978
  -0.786  -1.467  -2.978
  -3.497   0.856   1.416
  -3.451   0.508   1.416
  -3.792   1.034   1.248
  -3.792   0.678   1.248
  -3.715   0.329   1.248
  -4.052   1.211   1.047
  -4.085   0.856   1.047
  -4.052   0.501   1.047
  -3.954   0.158   1.047
  -3.795  -0.161   1.047
  -4.280   1.381   0.815
  -4.337   1.032   0.815
  -4.337   0.680   0.815
  -4.280   0.331   0.815
  -4.169  -0.003   0.815
  -4.005  -0.316   0.815
  -4.518   1.383   0.556
  -4.569   1.033   0.556
  -4.569   0.679   0.556
  -4.632   1.717   0.272
  -4.724   1.379   0.272
  -4.749   1.884  -0.032
  -4.857   1.551  -0.032
  -4.888   1.894  -0.353
  -4.853   2.212  -0.687
  -4.644   2.667  -1.030
  -4.834   2.371  -1.030
  -4.576   2.789  -1.377
  -4.777   2.505  -1.377
  -4.422   2.939  -1.724
  -4.644   2.667  -1.724
  -3.957   3.280  -2.067
  -4.226   3.054  -2.067
  -4.467   2.799  -2.067
  -4.677   2.517  -2.067
  -1.114   3.592  -2.401
  -1.452   3.697  -2.401
  -1.799   3.761  -2.401
  -2.152   3.782  -2.401
  -2.852   3.697  -2.401
  -3.190   3.592  -2.401
  -3.512   3.447  -2.401
  -3.814   3.264  -2.401
  -4.092   3.046  -2.401
  -4.342   2.796  -2.401
  -4.560   2.518  -2.401
  -2.505  -2.049  -2.401
  -1.629   3.600  -2.722
  -1.977   3.643  -2.722
  -2.327   3.643  -2.722
  -2.675   3.600  -2.722
  -3.015   3.512  -2.722
  -3.341   3.383  -2.722
  -3.649   3.214  -2.722
  -3.932   3.008  -2.722
  -4.188   2.768  -2.722
  -4.412   2.498  -2.722
  -2.675  -1.888  -2.722
  -2.327  -1.931  -2.722
  -1.977  -1.931  -2.722
  -2.240   3.479  -3.026
  -2.589   3.444  -3.026
  -2.930   3.363  -3.026
  -3.257   3.237  -3.026
  -3.564   3.068  -3.026
  -3.847   2.860  -3.026
  -4.099   2.617  -3.026
  -4.316   2.342  -3.026
  -2.589  -1.732  -3.026
  -2.240  -1.767  -3.026
  -1.889  -1.756  -3.026
  -1.544  -1.697  -3.026
  -1.209  -1.593  -3.026
  -0.891  -1.446  -3.026
  -0.595  -1.257  -3.026
  -2.592   3.239  -3.310
  -2.935   3.150  -3.310
  -3.260   3.011  -3.310
  -3.562   2.827  -3.310
  -3.834   2.601  -3.310
  -4.070   2.337  -3.310
  -4.266   2.042  -3.310
  -2.592  -1.527  -3.310
  -2.241  -1.566  -3.310
  -1.887  -1.553  -3.310
  -1.539  -1.489  -3.310
  -1.204  -1.375  -3.310
  -2.929   2.906  -3.569
  -3.248   2.754  -3.569
  -3.538   2.554  -3.569
  -3.793   2.310  -3.569
  -4.005   2.028  -3.569
  -2.590  -1.292  -3.569
  -2.240  -1.334  -3.569
  -1.888  -1.320  -3.569
  -1.542  -1.249  -3.569
  -3.317   2.398  -3.801
  -3.580   2.158  -3.801
  -3.795   1.874  -3.801
  -2.681  -1.003  -3.801
  -2.330  -1.069  -3.801
  -1.974  -1.069  -3.801
  -3.349   1.990  -4.002
  -3.565   1.706  -4.002
  -3.715   1.383  -4.002
  -2.762  -0.676  -4.002
  -2.419  -0.772  -4.002
  -3.451   1.204  -4.170
  -3.497   0.856  -4.170
  -3.103  -0.095  -4.170
  -2.825  -0.309  -4.170
  -4.053   1.605   1.063
  -4.204   2.195   0.846
  -4.247   1.901   0.846
  -4.247   1.605   0.846
  -4.185   2.746   0.608
  -4.300   2.475   0.608
  -4.377   2.192   0.608
  -4.417   1.900   0.608
  -4.417   1.606   0.608
  -4.115   3.130   0.353
  -4.273   2.882   0.353
  -4.398   2.615   0.353
  -4.489   2.336   0.353
  -4.544   2.047   0.353
  -4.057   3.380   0.084
  -4.240   3.147   0.084
  -4.393   2.893   0.084
  -4.515   2.623   0.084
  -4.603   2.340   0.084
  -4.656   2.049   0.084
  -3.959   3.597  -0.196
  -4.162   3.382  -0.196
  -4.338   3.146  -0.196
  -4.485   2.891  -0.196
  -4.602   2.620  -0.196
  -4.686   2.338  -0.196
  -3.678   3.886  -0.484
  -3.912   3.706  -0.484
  -4.123   3.500  -0.484
  -4.310   3.272  -0.484
  -4.470   3.023  -0.484
  -4.600   2.759  -0.484
  -4.699   2.481  -0.484
  -3.348   4.096  -0.775
  -3.603   3.954  -0.775
  -3.841   3.786  -0.775
  -4.058   3.591  -0.775
  -4.253   3.374  -0.775
  -4.421   3.136  -0.775
  -4.563   2.881  -0.775
  -4.674   2.612  -0.775
  -2.877   4.252  -1.066
  -3.157   4.161  -1.066
  -3.426   4.038  -1.066
  -3.678   3.886  -1.066
  -3.912   3.706  -1.066
  -4.123   3.500  -1.066
  -4.310   3.272  -1.066
  -4.470   3.023  -1.066
  -4.600   2.759  -1.066
  -2.660   4.249  -1.354
  -2.947   4.181  -1.354
  -3.224   4.081  -1.354
  -3.487   3.948  -1.354
  -3.734   3.786  -1.354
  -3.959   3.597  -1.354
  -4.162   3.382  -1.354
  -4.338   3.146  -1.354
  -2.220   4.207  -1.634
  -2.516   4.189  -1.634
  -2.807   4.136  -1.634
  -3.090   4.048  -1.634
  -3.360   3.926  -1.634
  -3.614   3.773  -1.634
  -3.847   3.590  -1.634
  -4.057   3.380  -1.634
  -4.240   3.147  -1.634
  -1.781   4.054  -1.903
  -2.073   4.091  -1.903
  -2.367   4.091  -1.903
  -2.659   4.054  -1.903
  -2.944   3.981  -1.903
  -3.217   3.873  -1.903
  -3.475   3.731  -1.903
  -3.713   3.558  -1.903
  -3.928   3.357  -1.903
  -1.429   3.807  -2.158
  -1.710   3.895  -2.158
  -2.000   3.943  -2.158
  -2.294   3.953  -2.158
  -2.586   3.924  -2.158
  -2.872   3.856  -2.158
  -3.147   3.750  -2.158
  -3.405   3.609  -2.158
  -2.294   3.784  -2.396
  -2.589   3.752  -2.396
   0.027   3.063  -2.289
  -0.211   3.231  -2.289
  -0.466   3.373  -2.289
  -0.735   3.484  -2.289
   0.207   2.883  -2.580
  -0.016   3.076  -2.580
  -0.260   3.243  -2.580
  -0.521   3.380  -2.580