 $system timlim=999888777
         mwords=100 $end
 $contrl exetyp=run
         runtyp=energy scftyp=rhf
         icharg=-1 mult=1 units=angs coord=unique
         maxit=50 ispher=1 qmttol=1d-6 icut=12 itol=22 $end
 $scf    dirscf=.t. diis=.t. soscf=.f.
         fdiff=.f. conv=1d-6
         npreo(1)=0,-1,1,9999 $end
 $elpot  iepot=1 where=points $end
 $basis  gbasis=n311 ngauss=6
         ndfunc=1 npfunc=1 diffsp=.t. diffs=.t. $end
 $DATA
TS1a_hfd_irc200_all_revmov.pdb
C1
P     15.0    -0.05200  -0.03600  -0.00700 
O      8.0    -0.11300  -0.15900   1.54600 
O      8.0     0.92800   0.83900  -0.62700 
F      9.0     0.36000  -1.54000  -0.27700 
O      8.0    -1.48500  -0.14900  -0.60900 
C      6.0    -2.15200   0.85600  -1.37700 
H      1.0    -2.24900   1.74000  -0.76300 
H      1.0    -1.57600   1.06000  -2.27100 
H      1.0    -3.10200   0.41600  -1.65000 
C      6.0     0.30600   0.83800   2.48100 
H      1.0     0.14900   0.39300   3.45600 
H      1.0     1.36100   1.03800   2.34000 
H      1.0    -0.28800   1.72600   2.31700 
O      8.0    -1.30000   2.52300   0.80100 
H      1.0    -0.70800   3.16400   0.42600 
 $END
 $POINTS
ANGS 3045
  -2.219  -2.071   1.425
  -1.947  -2.327   1.425
   2.712  -1.131   1.425
  -2.118  -2.367   1.083
   2.860  -1.141   1.083
   2.972  -0.781   1.083
   3.079  -0.778   0.727
   3.144  -0.410   0.727
   3.142  -0.779   0.362
   3.165  -0.770  -0.007
   1.188  -0.752  -2.980
  -0.241  -1.109  -3.122
   0.137  -1.109  -3.122
   0.493  -0.980  -3.122
   0.783  -0.737  -3.122
   0.315  -0.672  -3.224
   0.584  -0.403  -3.224
  -2.158  -0.941   3.292
  -2.022  -1.230   3.292
  -1.846  -1.497   3.292
  -1.632  -1.735   3.292
  -1.387  -1.939   3.292
  -1.114  -2.106   3.292
  -0.820  -2.231   3.292
  -0.511  -2.312   3.292
  -0.193  -2.347   3.292
   0.126  -2.335   3.292
   0.441  -2.277   3.292
   0.743  -2.174   3.292
  -2.436  -0.631   3.036
  -2.353  -0.937   3.036
  -2.229  -1.228   3.036
  -2.068  -1.501   3.036
  -1.871  -1.749   3.036
  -1.644  -1.969   3.036
  -1.389  -2.157   3.036
  -1.111  -2.310   3.036
  -0.815  -2.423   3.036
  -0.507  -2.497   3.036
  -0.192  -2.529   3.036
   0.124  -2.518   3.036
   0.437  -2.465   3.036
   0.739  -2.371   3.036
   1.026  -2.238   3.036
   1.293  -2.068   3.036
  -2.636  -0.159   2.761
  -2.616  -0.475   2.761
  -2.556  -0.786   2.761
  -2.459  -1.088   2.761
  -2.324  -1.374   2.761
  -2.154  -1.642   2.761
  -1.952  -1.886   2.761
  -1.721  -2.103   2.761
  -1.465  -2.289   2.761
  -1.187  -2.442   2.761
  -0.893  -2.558   2.761
  -0.586  -2.637   2.761
  -0.271  -2.677   2.761
   0.045  -2.677   2.761
   0.360  -2.637   2.761
   0.667  -2.558   2.761
   0.961  -2.442   2.761
   1.239  -2.289   2.761
   1.495  -2.103   2.761
  -2.737   0.160   2.471
  -2.756  -0.159   2.471
  -2.737  -0.478   2.471
  -2.679  -0.791   2.471
  -2.584  -1.096   2.471
  -2.453  -1.387   2.471
  -2.288  -1.660   2.471
  -2.091  -1.912   2.471
  -1.866  -2.137   2.471
  -1.614  -2.334   2.471
  -1.341  -2.499   2.471
  -1.050  -2.630   2.471
  -0.745  -2.725   2.471
  -0.432  -2.783   2.471
  -0.113  -2.802   2.471
   0.206  -2.783   2.471
   0.519  -2.725   2.471
   0.824  -2.630   2.471
   1.115  -2.499   2.471
   1.388  -2.334   2.471
   1.640  -2.137   2.471
   1.865  -1.912   2.471
  -2.769   0.471   2.169
  -2.824   0.158   2.169
  -2.843  -0.159   2.169
  -2.824  -0.476   2.169
  -2.769  -0.789   2.169
  -2.678  -1.093   2.169
  -2.552  -1.384   2.169
  -2.394  -1.659   2.169
  -2.204  -1.914   2.169
  -1.986  -2.145   2.169
  -1.743  -2.349   2.169
  -1.478  -2.523   2.169
  -1.194  -2.666   2.169
  -0.896  -2.774   2.169
  -0.587  -2.847   2.169
   1.760  -2.145   2.169
   1.978  -1.914   2.169
   2.168  -1.659   2.169
  -2.855   0.315   1.860
  -2.891   0.000   1.860
  -2.891  -0.318   1.860
  -2.855  -0.633   1.860
  -2.783  -0.943   1.860
  -2.676  -1.242   1.860
  -2.536  -1.527   1.860
  -2.364  -1.794   1.860
  -2.163  -2.040   1.860
  -1.935  -2.262   1.860
  -1.684  -2.456   1.860
  -1.411  -2.620   1.860
   2.384  -1.387   1.860
  -2.484  -1.649   1.546
  -2.302  -1.905   1.546
  -2.093  -2.139   1.546
  -1.859  -2.348   1.546
   3.451   0.839   0.588
   3.431   1.155   0.588
   3.371   1.466   0.588
   3.274   1.768   0.588
   3.139   2.054   0.588
   2.969   2.322   0.588
   2.767   2.566   0.588
   2.536   2.783   0.588
   2.280   2.969   0.588
   2.002   3.122   0.588
   3.274  -0.090   0.588
   3.371   0.212   0.588
   3.431   0.523   0.588
   3.571   0.839   0.298
   3.552   1.158   0.298
   3.494   1.471   0.298
   3.399   1.776   0.298
   3.268   2.067   0.298
   3.103   2.340   0.298
   2.906   2.592   0.298
   2.681   2.817   0.298
   2.429   3.014   0.298
   2.156   3.179   0.298
   3.268  -0.389   0.298
   3.399  -0.098   0.298
   3.494   0.207   0.298
   3.552   0.520   0.298
   3.658   0.839  -0.004
   3.639   1.156  -0.004
   3.584   1.469  -0.004
   3.493   1.773  -0.004
   3.367   2.064  -0.004
   3.209   2.339  -0.004
   3.019   2.594  -0.004
   2.801   2.825  -0.004
   2.558   3.029  -0.004
   2.293   3.203  -0.004
   2.009   3.346  -0.004
   3.209  -0.661  -0.004
   3.367  -0.386  -0.004
   3.493  -0.095  -0.004
   3.584   0.209  -0.004
   3.639   0.522  -0.004
   3.710   0.839  -0.313
   3.692   1.156  -0.313
   3.638   1.469  -0.313
   3.549   1.774  -0.313
   3.425   2.067  -0.313
   3.269   2.343  -0.313
   3.082   2.600  -0.313
   2.867   2.834  -0.313
   2.627   3.042  -0.313
   2.365   3.222  -0.313
   2.084   3.370  -0.313
   1.788   3.485  -0.313
   3.269  -0.665  -0.313
   3.425  -0.389  -0.313
   3.549  -0.096  -0.313
   3.638   0.209  -0.313
   3.692   0.522  -0.313
   3.728   0.839  -0.627
   3.710   1.153  -0.627
   3.658   1.462  -0.627
   3.571   1.764  -0.627
   3.451   2.054  -0.627
   3.299   2.329  -0.627
   3.117   2.585  -0.627
   2.908   2.819  -0.627
   2.674   3.028  -0.627
   2.418   3.210  -0.627
   2.143   3.362  -0.627
   1.853   3.482  -0.627
   3.299  -0.651  -0.627
   3.451  -0.376  -0.627
   3.571  -0.086  -0.627
   3.658   0.216  -0.627
   3.710   0.525  -0.627
   3.710   0.839  -0.940
   3.692   1.156  -0.940
   3.638   1.469  -0.940
   3.549   1.774  -0.940
   3.425   2.067  -0.940
   3.269   2.343  -0.940
   3.082   2.600  -0.940
   2.867   2.834  -0.940
   2.627   3.042  -0.940
   2.365   3.222  -0.940
   2.084   3.370  -0.940
   1.788   3.485  -0.940
   1.481   3.566  -0.940
   3.269  -0.665  -0.940
   3.425  -0.389  -0.940
   3.549  -0.096  -0.940
   3.638   0.209  -0.940
   3.692   0.522  -0.940
   3.658   0.839  -1.250
   3.639   1.156  -1.250
   3.584   1.469  -1.250
   3.493   1.773  -1.250
   3.367   2.064  -1.250
   3.209   2.339  -1.250
   3.019   2.594  -1.250
   2.801   2.825  -1.250
   2.558   3.029  -1.250
   2.293   3.203  -1.250
   2.009   3.346  -1.250
   1.711   3.454  -1.250
   1.402   3.527  -1.250
   3.019  -0.916  -1.250
   3.209  -0.661  -1.250
   3.367  -0.386  -1.250
   3.493  -0.095  -1.250
   3.584   0.209  -1.250
   3.639   0.522  -1.250
   3.571   0.839  -1.552
   3.552   1.158  -1.552
   3.494   1.471  -1.552
   3.399   1.776  -1.552
   3.268   2.067  -1.552
   3.103   2.340  -1.552
   2.906   2.592  -1.552
   2.681   2.817  -1.552
   2.429   3.014  -1.552
   2.156   3.179  -1.552
   1.865   3.310  -1.552
   1.560   3.405  -1.552
   1.247   3.463  -1.552
   2.906  -0.914  -1.552
   3.103  -0.662  -1.552
   3.268  -0.389  -1.552
   3.399  -0.098  -1.552
   3.494   0.207  -1.552
   3.552   0.520  -1.552
   3.451   0.839  -1.842
   3.431   1.155  -1.842
   3.371   1.466  -1.842
   3.274   1.768  -1.842
   3.139   2.054  -1.842
   2.969   2.322  -1.842
   2.767   2.566  -1.842
   2.536   2.783  -1.842
   2.280   2.969  -1.842
   2.002   3.122  -1.842
   1.708   3.238  -1.842
   1.401   3.317  -1.842
   1.086   3.357  -1.842
   0.770   3.357  -1.842
   2.767  -0.888  -1.842
   2.969  -0.644  -1.842
   3.139  -0.376  -1.842
   3.274  -0.090  -1.842
   3.371   0.212  -1.842
   3.431   0.523  -1.842
   3.299   0.839  -2.117
   3.278   1.155  -2.117
   3.215   1.465  -2.117
   3.111   1.765  -2.117
   2.968   2.047  -2.117
   2.789   2.308  -2.117
   2.576   2.543  -2.117
   2.334   2.748  -2.117
   2.067   2.918  -2.117
   1.780   3.051  -2.117
   1.478   3.145  -2.117
   1.165   3.198  -2.117
   0.849   3.209  -2.117
   0.534   3.177  -2.117
   0.226   3.103  -2.117
   2.576  -0.865  -2.117
   2.789  -0.630  -2.117
   2.968  -0.369  -2.117
   3.111  -0.087  -2.117
   3.215   0.213  -2.117
   3.278   0.523  -2.117
   3.117   0.839  -2.373
   3.094   1.158  -2.373
   3.024   1.470  -2.373
   2.910   1.768  -2.373
   2.754   2.047  -2.373
   2.558   2.300  -2.373
   2.328   2.522  -2.373
   2.068   2.708  -2.373
   1.784   2.854  -2.373
   1.482   2.957  -2.373
   1.167   3.015  -2.373
   0.848   3.027  -2.373
   0.530   2.992  -2.373
   2.328  -0.844  -2.373
   2.558  -0.622  -2.373
   2.754  -0.369  -2.373
   2.910  -0.090  -2.373
   3.024   0.208  -2.373
   3.094   0.520  -2.373
   2.908   0.839  -2.607
   2.882   1.157  -2.607
   2.806   1.466  -2.607
   2.681   1.759  -2.607
   2.511   2.028  -2.607
   2.300   2.267  -2.607
   2.053   2.468  -2.607
   1.777   2.628  -2.607
   1.479   2.741  -2.607
   1.167   2.804  -2.607
   0.848   2.817  -2.607
   0.532   2.779  -2.607
   2.053  -0.790  -2.607
   2.300  -0.589  -2.607
   2.511  -0.350  -2.607
   2.681  -0.081  -2.607
   2.806   0.212  -2.607
   2.882   0.521  -2.607
   2.674   0.839  -2.816
   2.644   1.160  -2.816
   2.556   1.470  -2.816
   2.412   1.758  -2.816
   2.218   2.015  -2.816
   1.980   2.232  -2.816
   1.706   2.402  -2.816
   1.406   2.518  -2.816
   1.089   2.577  -2.816
   0.767   2.577  -2.816
   1.706  -0.724  -2.816
   1.980  -0.554  -2.816
   2.218  -0.337  -2.816
   2.412  -0.080  -2.816
   2.556   0.208  -2.816
   2.644   0.518  -2.816
   2.418   0.839  -2.998
   2.383   1.159  -2.998
   2.280   1.465  -2.998
   2.114   1.741  -2.998
   1.892   1.974  -2.998
   1.626   2.155  -2.998
   1.327   2.274  -2.998
   1.009   2.327  -2.998
   0.687   2.309  -2.998
   1.327  -0.596  -2.998
   1.626  -0.477  -2.998
   1.892  -0.296  -2.998
   2.114  -0.063  -2.998
   2.280   0.213  -2.998
   2.383   0.519  -2.998
   2.143   0.839  -3.150
   2.101   1.153  -3.150
   1.980   1.446  -3.150
   1.787   1.698  -3.150
   1.535   1.891  -3.150
   1.242   2.012  -3.150
   0.928   2.054  -3.150
   0.928  -0.376  -3.150
   1.242  -0.334  -3.150
   1.535  -0.213  -3.150
   1.787  -0.020  -3.150
   1.980   0.232  -3.150
   2.101   0.525  -3.150
   1.853   0.839  -3.270
   1.797   1.155  -3.270
   1.636   1.433  -3.270
   1.390   1.640  -3.270
   1.089   1.750  -3.270
   0.767   1.750  -3.270
   0.767  -0.072  -3.270
   1.089  -0.072  -3.270
   1.390   0.038  -3.270
   1.636   0.245  -3.270
   1.797   0.523  -3.270
   1.551   0.839  -3.357
   1.468   1.151  -3.357
   1.240   1.379  -3.357
   0.928   1.462  -3.357
   0.928   0.216  -3.357
   1.240   0.299  -3.357
   1.468   0.527  -3.357
   1.242   0.839  -3.409
   1.085   1.111  -3.409
   0.771   1.111  -3.409
   0.771   0.567  -3.409
   1.085   0.567  -3.409
   0.928   0.839  -3.427
   0.682  -2.743   2.309
  -0.205  -2.958   2.153
   0.113  -3.047   2.153
   0.443  -3.065   2.153
   0.768  -3.011   2.153
   1.075  -2.889   2.153
   1.349  -2.704   2.153
   1.576  -2.464   2.153
   1.746  -2.181   2.153
  -0.718  -2.968   1.967
  -0.438  -3.142   1.967
  -0.130  -3.261   1.967
   0.195  -3.322   1.967
   0.525  -3.322   1.967
   0.850  -3.261   1.967
   1.158  -3.142   1.967
   1.438  -2.968   1.967
   1.682  -2.746   1.967
   1.881  -2.482   1.967
   2.029  -2.186   1.967
   2.119  -1.869   1.967
   2.389  -1.540   1.752
  -1.159  -2.886   1.752
  -0.923  -3.112   1.752
  -0.655  -3.298   1.752
  -0.360  -3.438   1.752
  -0.046  -3.528   1.752
   0.278  -3.568   1.752
   0.605  -3.555   1.752
   0.925  -3.489   1.752
   1.230  -3.373   1.752
   1.513  -3.210   1.752
   1.766  -3.004   1.752
   1.982  -2.759   1.752
   2.157  -2.483   1.752
   2.285  -2.183   1.752
   2.363  -1.866   1.752
   2.604  -1.540   1.512
  -1.597  -2.638   1.512
  -1.416  -2.911   1.512
  -1.197  -3.155   1.512
  -0.946  -3.365   1.512
  -0.666  -3.536   1.512
  -0.365  -3.664   1.512
  -0.048  -3.747   1.512
   0.278  -3.782   1.512
   0.605  -3.770   1.512
   0.928  -3.711   1.512
   1.238  -3.605   1.512
   1.529  -3.455   1.512
   1.795  -3.265   1.512
   2.031  -3.037   1.512
   2.231  -2.778   1.512
   2.392  -2.492   1.512
   2.509  -2.186   1.512
   2.580  -1.867   1.512
   2.790  -1.540   1.250
   2.768  -1.216   1.250
  -1.809  -2.636   1.250
  -1.643  -2.915   1.250
  -1.442  -3.170   1.250
  -1.209  -3.396   1.250
  -0.948  -3.588   1.250
  -0.663  -3.744   1.250
  -0.360  -3.861   1.250
  -0.044  -3.936   1.250
   0.279  -3.969   1.250
   0.603  -3.958   1.250
   0.923  -3.904   1.250
   1.233  -3.808   1.250
   1.528  -3.671   1.250
   1.801  -3.496   1.250
   2.049  -3.287   1.250
   2.267  -3.046   1.250
   2.451  -2.778   1.250
   2.597  -2.489   1.250
   2.704  -2.182   1.250
   2.768  -1.864   1.250
   2.946  -1.540   0.968
   2.925  -1.216   0.968
  -2.044  -2.492   0.968
  -1.906  -2.786   0.968
  -1.732  -3.060   0.968
  -1.525  -3.310   0.968
  -1.288  -3.532   0.968
  -1.026  -3.723   0.968
  -0.741  -3.880   0.968
  -0.439  -3.999   0.968
  -0.125  -4.080   0.968
   0.198  -4.121   0.968
   0.522  -4.121   0.968
   0.845  -4.080   0.968
   1.159  -3.999   0.968
   1.461  -3.880   0.968
   1.746  -3.723   0.968
   2.008  -3.532   0.968
   2.245  -3.310   0.968
   2.452  -3.060   0.968
   2.626  -2.786   0.968
   2.764  -2.492   0.968
   2.865  -2.183   0.968
   2.925  -1.864   0.968
   3.069  -1.540   0.671
   3.049  -1.213   0.671
  -2.039  -2.799   0.671
  -1.869  -3.079   0.671
  -1.668  -3.336   0.671
  -1.436  -3.568   0.671
  -1.179  -3.769   0.671
  -0.899  -3.939   0.671
  -0.601  -4.073   0.671
  -0.288  -4.170   0.671
   0.033  -4.229   0.671
   0.360  -4.249   0.671
   0.687  -4.229   0.671
   1.008  -4.170   0.671
   1.321  -4.073   0.671
   1.619  -3.939   0.671
   1.899  -3.769   0.671
   2.156  -3.568   0.671
   2.388  -3.336   0.671
   2.589  -3.079   0.671
   2.759  -2.799   0.671
   2.893  -2.501   0.671
   2.990  -2.188   0.671
   3.049  -1.867   0.671
   3.158  -1.540   0.362
   3.139  -1.215   0.362
  -2.140  -2.796   0.362
  -1.978  -3.078   0.362
  -1.783  -3.339   0.362
  -1.560  -3.575   0.362
  -1.311  -3.784   0.362
  -1.039  -3.963   0.362
  -0.748  -4.109   0.362
  -0.442  -4.220   0.362
  -0.126  -4.296   0.362
   0.197  -4.333   0.362
   0.523  -4.333   0.362
   0.846  -4.296   0.362
   1.162  -4.220   0.362
   1.468  -4.109   0.362
   1.759  -3.963   0.362
   2.031  -3.784   0.362
   2.280  -3.575   0.362
   2.503  -3.339   0.362
   2.698  -3.078   0.362
   2.860  -2.796   0.362
   2.989  -2.497   0.362
   3.083  -2.185   0.362
   3.139  -1.865   0.362
   3.212  -1.540   0.044
   3.193  -1.215   0.044
   3.138  -0.894   0.044
  -2.123  -2.942   0.044
  -1.947  -3.216   0.044
  -1.741  -3.468   0.044
  -1.508  -3.695   0.044
  -1.250  -3.894   0.044
  -0.971  -4.062   0.044
  -0.675  -4.198   0.044
  -0.365  -4.298   0.044
  -0.046  -4.363   0.044
   0.279  -4.391   0.044
   0.604  -4.381   0.044
   0.926  -4.335   0.044
   1.241  -4.252   0.044
   1.545  -4.134   0.044
   1.833  -3.982   0.044
   2.102  -3.798   0.044
   2.348  -3.585   0.044
   2.568  -3.345   0.044
   2.759  -3.082   0.044
   2.919  -2.798   0.044
   3.046  -2.498   0.044
   3.138  -2.186   0.044
   3.193  -1.865   0.044
   3.230  -1.540  -0.277
   3.212  -1.219  -0.277
   3.158  -0.901  -0.277
  -2.070  -3.067  -0.277
  -1.884  -3.329  -0.277
  -1.669  -3.569  -0.277
  -1.429  -3.784  -0.277
  -1.167  -3.970  -0.277
  -0.885  -4.126  -0.277
  -0.588  -4.249  -0.277
  -0.279  -4.338  -0.277
   0.039  -4.392  -0.277
   0.360  -4.410  -0.277
   0.681  -4.392  -0.277
   0.999  -4.338  -0.277
   1.308  -4.249  -0.277
   1.605  -4.126  -0.277
   1.887  -3.970  -0.277
   2.149  -3.784  -0.277
   2.389  -3.569  -0.277
   2.604  -3.329  -0.277
   2.790  -3.067  -0.277
   2.946  -2.785  -0.277
   3.069  -2.488  -0.277
   3.158  -2.179  -0.277
   3.212  -1.861  -0.277
   3.212  -1.540  -0.598
   3.193  -1.215  -0.598
   3.138  -0.894  -0.598
  -2.123  -2.942  -0.598
  -1.947  -3.216  -0.598
  -1.741  -3.468  -0.598
  -1.508  -3.695  -0.598
  -1.250  -3.894  -0.598
  -0.971  -4.062  -0.598
  -0.675  -4.198  -0.598
  -0.365  -4.298  -0.598
  -0.046  -4.363  -0.598
   0.279  -4.391  -0.598
   0.604  -4.381  -0.598
   0.926  -4.335  -0.598
   1.241  -4.252  -0.598
   1.545  -4.134  -0.598
   1.833  -3.982  -0.598
   2.102  -3.798  -0.598
   2.348  -3.585  -0.598
   2.568  -3.345  -0.598
   2.759  -3.082  -0.598
   2.919  -2.798  -0.598
   3.046  -2.498  -0.598
   3.138  -2.186  -0.598
   3.193  -1.865  -0.598
   3.158  -1.540  -0.916
   3.139  -1.215  -0.916
  -1.978  -3.078  -0.916
  -1.783  -3.339  -0.916
  -1.560  -3.575  -0.916
  -1.311  -3.784  -0.916
  -1.039  -3.963  -0.916
  -0.748  -4.109  -0.916
  -0.442  -4.220  -0.916
  -0.126  -4.296  -0.916
   0.197  -4.333  -0.916
   0.523  -4.333  -0.916
   0.846  -4.296  -0.916
   1.162  -4.220  -0.916
   1.468  -4.109  -0.916
   1.759  -3.963  -0.916
   2.031  -3.784  -0.916
   2.280  -3.575  -0.916
   2.503  -3.339  -0.916
   2.698  -3.078  -0.916
   2.860  -2.796  -0.916
   2.989  -2.497  -0.916
   3.083  -2.185  -0.916
   3.139  -1.865  -0.916
   3.069  -1.540  -1.225
   3.049  -1.213  -1.225
  -1.869  -3.079  -1.225
  -1.668  -3.336  -1.225
  -1.436  -3.568  -1.225
  -1.179  -3.769  -1.225
  -0.899  -3.939  -1.225
  -0.601  -4.073  -1.225
  -0.288  -4.170  -1.225
   0.033  -4.229  -1.225
   0.360  -4.249  -1.225
   0.687  -4.229  -1.225
   1.008  -4.170  -1.225
   1.321  -4.073  -1.225
   1.619  -3.939  -1.225
   1.899  -3.769  -1.225
   2.156  -3.568  -1.225
   2.388  -3.336  -1.225
   2.589  -3.079  -1.225
   2.759  -2.799  -1.225
   2.893  -2.501  -1.225
   2.990  -2.188  -1.225
   3.049  -1.867  -1.225
   2.946  -1.540  -1.522
   2.925  -1.216  -1.522
  -1.906  -2.786  -1.522
  -1.732  -3.060  -1.522
  -1.525  -3.310  -1.522
  -1.288  -3.532  -1.522
  -1.026  -3.723  -1.522
  -0.741  -3.880  -1.522
  -0.439  -3.999  -1.522
  -0.125  -4.080  -1.522
   0.198  -4.121  -1.522
   0.522  -4.121  -1.522
   0.845  -4.080  -1.522
   1.159  -3.999  -1.522
   1.461  -3.880  -1.522
   1.746  -3.723  -1.522
   2.008  -3.532  -1.522
   2.245  -3.310  -1.522
   2.452  -3.060  -1.522
   2.626  -2.786  -1.522
   2.764  -2.492  -1.522
   2.865  -2.183  -1.522
   2.925  -1.864  -1.522
   2.790  -1.540  -1.804
   2.768  -1.216  -1.804
  -1.643  -2.915  -1.804
  -1.442  -3.170  -1.804
  -1.209  -3.396  -1.804
  -0.948  -3.588  -1.804
  -0.663  -3.744  -1.804
  -0.360  -3.861  -1.804
  -0.044  -3.936  -1.804
   0.279  -3.969  -1.804
   0.603  -3.958  -1.804
   0.923  -3.904  -1.804
   1.233  -3.808  -1.804
   1.528  -3.671  -1.804
   1.801  -3.496  -1.804
   2.049  -3.287  -1.804
   2.267  -3.046  -1.804
   2.451  -2.778  -1.804
   2.597  -2.489  -1.804
   2.704  -2.182  -1.804
   2.768  -1.864  -1.804
   2.604  -1.540  -2.066
   2.580  -1.213  -2.066
  -1.597  -2.638  -2.066
  -1.416  -2.911  -2.066
  -1.197  -3.155  -2.066
  -0.946  -3.365  -2.066
  -0.666  -3.536  -2.066
  -0.365  -3.664  -2.066
  -0.048  -3.747  -2.066
   0.278  -3.782  -2.066
   0.605  -3.770  -2.066
   0.928  -3.711  -2.066
   1.238  -3.605  -2.066
   1.529  -3.455  -2.066
   1.795  -3.265  -2.066
   2.031  -3.037  -2.066
   2.231  -2.778  -2.066
   2.392  -2.492  -2.066
   2.509  -2.186  -2.066
   2.580  -1.867  -2.066
   2.389  -1.540  -2.306
   2.363  -1.214  -2.306
  -1.355  -2.625  -2.306
  -1.159  -2.886  -2.306
  -0.923  -3.112  -2.306
  -0.655  -3.298  -2.306
  -0.360  -3.438  -2.306
  -0.046  -3.528  -2.306
   0.278  -3.568  -2.306
   0.605  -3.555  -2.306
   0.925  -3.489  -2.306
   1.230  -3.373  -2.306
   1.513  -3.210  -2.306
   1.766  -3.004  -2.306
   1.982  -2.759  -2.306
   2.157  -2.483  -2.306
   2.285  -2.183  -2.306
   2.363  -1.866  -2.306
   2.149  -1.540  -2.521
   2.119  -1.211  -2.521
  -1.161  -2.482  -2.521
  -0.962  -2.746  -2.521
  -0.718  -2.968  -2.521
  -0.438  -3.142  -2.521
  -0.130  -3.261  -2.521
   0.195  -3.322  -2.521
   0.525  -3.322  -2.521
   0.850  -3.261  -2.521
   1.158  -3.142  -2.521
   1.438  -2.968  -2.521
   1.682  -2.746  -2.521
   1.881  -2.482  -2.521
   2.029  -2.186  -2.521
   2.119  -1.869  -2.521
   1.887  -1.540  -2.707
   1.851  -1.212  -2.707
   1.746  -0.899  -2.707
  -1.087  -2.028  -2.707
  -0.948  -2.327  -2.707
  -0.749  -2.590  -2.707
  -0.497  -2.804  -2.707
  -0.205  -2.958  -2.707
   0.113  -3.047  -2.707
   0.443  -3.065  -2.707
   0.768  -3.011  -2.707
   1.075  -2.889  -2.707
   1.349  -2.704  -2.707
   1.576  -2.464  -2.707
   1.746  -2.181  -2.707
   1.851  -1.868  -2.707
   1.605  -1.540  -2.863
   1.563  -1.218  -2.863
   1.438  -0.917  -2.863
  -0.843  -1.862  -2.863
  -0.718  -2.163  -2.863
  -0.521  -2.421  -2.863
  -0.263  -2.618  -2.863
   0.038  -2.743  -2.863
   0.360  -2.785  -2.863
   0.682  -2.743  -2.863
   0.983  -2.618  -2.863
   1.241  -2.421  -2.863
   1.438  -2.163  -2.863
   1.563  -1.862  -2.863
   1.308  -1.540  -2.986
   1.251  -1.216  -2.986
   1.086  -0.931  -2.986
  -0.588  -1.540  -2.986
  -0.531  -1.864  -2.986
  -0.366  -2.149  -2.986
  -0.114  -2.361  -2.986
   0.195  -2.474  -2.986
   0.525  -2.474  -2.986
   0.834  -2.361  -2.986
   1.086  -2.149  -2.986
   1.251  -1.864  -2.986
   0.999  -1.540  -3.075
   0.913  -1.221  -3.075
  -0.279  -1.540  -3.075
  -0.193  -1.859  -3.075
   0.041  -2.093  -3.075
   0.360  -2.179  -3.075
   0.679  -2.093  -3.075
   0.913  -1.859  -3.075
   0.681  -1.540  -3.129
   0.521  -1.262  -3.129
   0.199  -1.262  -3.129
   0.039  -1.540  -3.129
   0.199  -1.818  -3.129
   0.521  -1.818  -3.129
   0.360  -1.540  -3.147
  -2.897   0.327   1.762
  -2.966   0.012   1.762
  -2.966  -0.310   1.762
  -2.897  -0.625   1.762
  -3.113   0.482   1.580
  -3.201   0.172   1.580
  -3.231  -0.149   1.580
  -3.201  -0.470   1.580
  -3.113  -0.780   1.580
  -2.969  -1.068   1.580
  -2.775  -1.325   1.580
  -3.458   0.010   1.371
  -3.458  -0.308   1.371
  -3.407  -0.623   1.371
  -3.306  -0.925   1.371
  -3.158  -1.207   1.371
  -2.967  -1.462   1.371
  -2.737  -1.683   1.371
  -2.475  -1.864   1.371
  -3.668  -0.309   1.137
  -3.622  -0.625   1.137
  -3.530  -0.931   1.137
  -3.394  -1.220   1.137
  -3.218  -1.487   1.137
  -3.004  -1.725   1.137
  -2.759  -1.929   1.137
  -2.486  -2.096   1.137
  -3.808  -0.621   0.881
  -3.725  -0.927   0.881
  -3.601  -1.218   0.881
  -3.440  -1.491   0.881
  -3.243  -1.739   0.881
  -3.016  -1.959   0.881
  -2.761  -2.147   0.881
  -2.483  -2.300   0.881
  -2.187  -2.413   0.881
  -3.928  -0.776   0.606
  -3.831  -1.078   0.606
  -3.696  -1.364   0.606
  -3.526  -1.632   0.606
  -3.324  -1.876   0.606
  -3.093  -2.093   0.606
  -2.837  -2.279   0.606
  -2.559  -2.432   0.606
  -2.265  -2.548   0.606
  -3.956  -1.086   0.316
  -3.825  -1.377   0.316
  -3.660  -1.650   0.316
  -3.463  -1.902   0.316
  -3.238  -2.127   0.316
  -2.986  -2.324   0.316
  -2.713  -2.489   0.316
  -2.422  -2.620   0.316
  -3.766  -1.649   0.014
  -3.576  -1.904   0.014
  -3.358  -2.135   0.014
  -3.115  -2.339   0.014
  -2.850  -2.513   0.014
  -2.566  -2.656   0.014
  -2.268  -2.764   0.014
  -3.736  -1.784  -0.295
  -3.535  -2.030  -0.295
  -3.307  -2.252  -0.295
  -3.056  -2.446  -0.295
  -2.783  -2.610  -0.295
  -2.494  -2.742  -0.295
  -3.465  -2.129  -0.609
  -3.231  -2.338  -0.609
  -2.975  -2.520  -0.609
  -2.700  -2.672  -0.609
  -2.410  -2.792  -0.609
  -3.307  -2.252  -0.922
  -3.056  -2.446  -0.922
  -2.783  -2.610  -0.922
  -2.494  -2.742  -0.922
  -2.192  -2.840  -0.922
  -3.115  -2.339  -1.232
  -2.850  -2.513  -1.232
  -2.566  -2.656  -1.232
  -2.268  -2.764  -1.232
  -2.986  -2.324  -1.534
  -2.713  -2.489  -1.534
  -2.422  -2.620  -1.534
  -2.117  -2.715  -1.534
  -2.837  -2.279  -1.824
  -2.559  -2.432  -1.824
  -2.265  -2.548  -1.824
  -1.958  -2.627  -1.824
  -2.761  -2.147  -2.099
  -2.483  -2.300  -2.099
  -2.187  -2.413  -2.099
  -1.879  -2.487  -2.099
  -2.486  -2.096  -2.355
  -2.192  -2.221  -2.355
  -1.883  -2.302  -2.355
  -1.565  -2.337  -2.355
  -2.187  -2.000  -2.589
  -1.881  -2.089  -2.589
  -1.565  -2.127  -2.589
  -1.246  -2.114  -2.589
  -1.646  -1.887  -2.798
  -1.324  -1.887  -2.798
  -1.007  -1.828  -2.798
  -1.086  -1.584  -2.980
  -0.787  -1.465  -2.980
  -3.497   0.856   1.416
  -3.451   0.508   1.416
  -3.792   1.034   1.248
  -3.792   0.678   1.248
  -3.715   0.329   1.248
  -4.052   1.211   1.047
  -4.085   0.856   1.047
  -4.052   0.501   1.047
  -3.954   0.158   1.047
  -3.795  -0.161   1.047
  -4.337   1.032   0.815
  -4.337   0.680   0.815
  -4.280   0.331   0.815
  -4.169  -0.003   0.815
  -4.005  -0.316   0.815
  -4.518   1.383   0.556
  -4.569   1.033   0.556
  -4.569   0.679   0.556
  -4.518   0.329   0.556
  -4.416  -0.010   0.556
  -4.266  -0.330   0.556
  -4.070  -0.625   0.556
  -4.724   1.379   0.272
  -4.771   1.031   0.272
  -4.749   1.884  -0.032
  -4.857   1.551  -0.032
  -4.888   1.894  -0.353
  -4.853   2.212  -0.687
  -4.834   2.371  -1.030
  -4.576   2.789  -1.377
  -4.777   2.505  -1.377
  -4.422   2.939  -1.724
  -4.644   2.667  -1.724
  -4.834   2.371  -1.724
  -3.957   3.280  -2.067
  -4.226   3.054  -2.067
  -4.467   2.799  -2.067
  -4.677   2.517  -2.067
  -1.452   3.697  -2.401
  -1.799   3.761  -2.401
  -2.152   3.782  -2.401
  -2.505   3.761  -2.401
  -2.852   3.697  -2.401
  -3.190   3.592  -2.401
  -3.512   3.447  -2.401
  -3.814   3.264  -2.401
  -4.092   3.046  -2.401
  -4.342   2.796  -2.401
  -4.560   2.518  -2.401
  -2.505  -2.049  -2.401
  -1.977   3.643  -2.722
  -2.327   3.643  -2.722
  -2.675   3.600  -2.722
  -3.015   3.512  -2.722
  -3.341   3.383  -2.722
  -3.649   3.214  -2.722
  -3.932   3.008  -2.722
  -4.188   2.768  -2.722
  -4.412   2.498  -2.722
  -2.327  -1.931  -2.722
  -1.977  -1.931  -2.722
  -2.240   3.479  -3.026
  -2.589   3.444  -3.026
  -2.930   3.363  -3.026
  -3.257   3.237  -3.026
  -3.564   3.068  -3.026
  -3.847   2.860  -3.026
  -4.099   2.617  -3.026
  -4.316   2.342  -3.026
  -2.589  -1.732  -3.026
  -2.240  -1.767  -3.026
  -1.889  -1.756  -3.026
  -1.544  -1.697  -3.026
  -1.209  -1.593  -3.026
  -0.891  -1.446  -3.026
  -0.595  -1.257  -3.026
  -2.592   3.239  -3.310
  -2.935   3.150  -3.310
  -3.260   3.011  -3.310
  -3.562   2.827  -3.310
  -3.834   2.601  -3.310
  -4.070   2.337  -3.310
  -2.592  -1.527  -3.310
  -2.241  -1.566  -3.310
  -1.887  -1.553  -3.310
  -1.539  -1.489  -3.310
  -1.204  -1.375  -3.310
  -2.929   2.906  -3.569
  -3.248   2.754  -3.569
  -3.538   2.554  -3.569
  -3.793   2.310  -3.569
  -4.005   2.028  -3.569
  -2.590  -1.292  -3.569
  -2.240  -1.334  -3.569
  -1.888  -1.320  -3.569
  -1.542  -1.249  -3.569
  -3.317   2.398  -3.801
  -3.580   2.158  -3.801
  -3.795   1.874  -3.801
  -2.681  -1.003  -3.801
  -2.330  -1.069  -3.801
  -1.974  -1.069  -3.801
  -3.349   1.990  -4.002
  -3.565   1.706  -4.002
  -3.715   1.383  -4.002
  -2.762  -0.676  -4.002
  -2.419  -0.772  -4.002
  -3.317   1.529  -4.170
  -3.451   1.204  -4.170
  -2.825  -0.309  -4.170
  -3.114   0.506  -4.303
  -3.842   1.442   1.270
  -3.761   1.154   1.270
  -4.082   1.888   1.075
  -4.082   1.592   1.075
  -4.034   1.300   1.075
  -4.148   2.466   0.858
  -4.233   2.182   0.858
  -4.276   1.888   0.858
  -4.276   1.592   0.858
  -4.064   2.986   0.620
  -4.214   2.733   0.620
  -4.329   2.462   0.620
  -4.406   2.179   0.620
  -4.446   1.887   0.620
  -4.446   1.593   0.620
  -3.957   3.344   0.365
  -4.144   3.117   0.365
  -4.302   2.869   0.365
  -4.427   2.602   0.365
  -4.518   2.323   0.365
  -4.573   2.034   0.365
  -4.592   1.740   0.365
  -3.876   3.577   0.096
  -4.086   3.367   0.096
  -4.269   3.134   0.096
  -4.422   2.880   0.096
  -4.544   2.610   0.096
  -4.632   2.327   0.096
  -4.685   2.036   0.096
  -3.516   3.935  -0.184
  -3.763   3.773  -0.184
  -3.988   3.584  -0.184
  -4.191   3.369  -0.184
  -4.367   3.133  -0.184
  -4.514   2.878  -0.184
  -4.631   2.607  -0.184
  -4.715   2.325  -0.184
  -4.767   2.034  -0.184
  -3.455   4.025  -0.472
  -3.707   3.873  -0.472
  -3.941   3.693  -0.472
  -4.152   3.487  -0.472
  -4.339   3.259  -0.472
  -4.499   3.010  -0.472
  -4.629   2.746  -0.472
  -4.728   2.468  -0.472
  -2.828   4.275  -0.763
  -3.108   4.194  -0.763
  -3.377   4.083  -0.763
  -3.632   3.941  -0.763
  -3.870   3.773  -0.763
  -4.087   3.578  -0.763
  -4.282   3.361  -0.763
  -4.450   3.123  -0.763
  -4.592   2.868  -0.763
  -4.703   2.599  -0.763
  -2.617   4.297  -1.054
  -2.906   4.239  -1.054
  -3.186   4.148  -1.054
  -3.455   4.025  -1.054
  -3.707   3.873  -1.054
  -3.941   3.693  -1.054
  -4.152   3.487  -1.054
  -4.339   3.259  -1.054
  -4.499   3.010  -1.054
  -4.629   2.746  -1.054
  -2.396   4.271  -1.342
  -2.689   4.236  -1.342
  -2.976   4.168  -1.342
  -3.253   4.068  -1.342
  -3.516   3.935  -1.342
  -3.763   3.773  -1.342
  -3.988   3.584  -1.342
  -4.191   3.369  -1.342
  -4.367   3.133  -1.342
  -4.514   2.878  -1.342
  -1.953   4.176  -1.622
  -2.249   4.194  -1.622
  -2.545   4.176  -1.622
  -2.836   4.123  -1.622
  -3.119   4.035  -1.622
  -3.389   3.913  -1.622
  -3.643   3.760  -1.622
  -3.876   3.577  -1.622
  -4.086   3.367  -1.622
  -4.269   3.134  -1.622
  -1.810   4.041  -1.891
  -2.102   4.078  -1.891
  -2.396   4.078  -1.891
  -2.688   4.041  -1.891
  -2.973   3.968  -1.891
  -3.246   3.860  -1.891
  -3.504   3.718  -1.891
  -3.742   3.545  -1.891
  -3.957   3.344  -1.891
  -1.458   3.794  -2.146
  -1.739   3.882  -2.146
  -2.029   3.930  -2.146
  -2.323   3.940  -2.146
  -2.615   3.911  -2.146
  -2.901   3.843  -2.146
  -3.176   3.737  -2.146
  -3.434   3.596  -2.146
   0.045   3.093  -2.271
  -0.193   3.261  -2.271
  -0.448   3.403  -2.271