 $system timlim=999888777
         mwords=100 $end
 $contrl exetyp=run
         runtyp=energy scftyp=rhf
         icharg=-1 mult=1 units=angs coord=unique
         maxit=50 ispher=1 qmttol=1d-6 icut=12 itol=22 $end
 $scf    dirscf=.t. diis=.t. soscf=.f.
         fdiff=.f. conv=1d-6
         npreo(1)=0,-1,1,9999 $end
 $elpot  iepot=1 where=points $end
 $basis  gbasis=n311 ngauss=6
         ndfunc=1 npfunc=1 diffsp=.t. diffs=.t. $end
 $DATA
TS1a_hfd_irc200_all_revmov.pdb
C1
P     15.0    -0.05200  -0.03800  -0.00600 
O      8.0    -0.10700  -0.19000   1.54500 
O      8.0     0.93700   0.82900  -0.62200 
F      9.0     0.35300  -1.54500  -0.29500 
O      8.0    -1.48600  -0.14700  -0.61000 
C      6.0    -2.15200   0.85600  -1.37700 
H      1.0    -2.27200   1.73200  -0.75600 
H      1.0    -1.56300   1.08200  -2.25900 
H      1.0    -3.09100   0.40700  -1.67400 
C      6.0     0.32700   0.78100   2.49800 
H      1.0     0.19400   0.30800   3.46300 
H      1.0     1.37800   0.99300   2.34000 
H      1.0    -0.27200   1.67100   2.37200 
O      8.0    -1.25000   2.45200   0.80800 
H      1.0    -0.65100   3.08900   0.43800 
 $END
 $POINTS
ANGS 3038
  -2.219  -2.073   1.426
  -1.947  -2.329   1.426
   2.712  -1.133   1.426
  -2.118  -2.369   1.084
   2.860  -1.143   1.084
   2.972  -0.783   1.084
   3.079  -0.780   0.728
   3.144  -0.412   0.728
   3.142  -0.781   0.363
   3.165  -0.772  -0.006
   1.188  -0.754  -2.979
  -0.241  -1.111  -3.121
   0.493  -0.982  -3.121
   0.783  -0.739  -3.121
   0.315  -0.674  -3.223
   0.584  -0.405  -3.223
  -2.152  -0.972   3.291
  -2.016  -1.261   3.291
  -1.840  -1.528   3.291
  -1.626  -1.766   3.291
  -1.381  -1.970   3.291
  -1.108  -2.137   3.291
  -0.814  -2.262   3.291
  -0.505  -2.343   3.291
  -0.187  -2.378   3.291
   0.132  -2.366   3.291
   0.447  -2.308   3.291
  -2.430  -0.662   3.035
  -2.347  -0.968   3.035
  -2.223  -1.259   3.035
  -2.062  -1.532   3.035
  -1.865  -1.780   3.035
  -1.638  -2.000   3.035
  -1.383  -2.188   3.035
  -1.105  -2.341   3.035
  -0.809  -2.454   3.035
  -0.501  -2.528   3.035
  -0.186  -2.560   3.035
   0.130  -2.549   3.035
   0.443  -2.496   3.035
   0.745  -2.402   3.035
   1.032  -2.269   3.035
  -2.630  -0.190   2.760
  -2.610  -0.506   2.760
  -2.550  -0.817   2.760
  -2.453  -1.119   2.760
  -2.318  -1.405   2.760
  -2.148  -1.673   2.760
  -1.946  -1.917   2.760
  -1.715  -2.134   2.760
  -1.459  -2.320   2.760
  -1.181  -2.473   2.760
  -0.887  -2.589   2.760
  -0.580  -2.668   2.760
  -0.265  -2.708   2.760
   0.051  -2.708   2.760
   0.366  -2.668   2.760
   0.673  -2.589   2.760
   0.967  -2.473   2.760
   1.245  -2.320   2.760
   1.501  -2.134   2.760
  -2.731   0.129   2.470
  -2.750  -0.190   2.470
  -2.731  -0.509   2.470
  -2.673  -0.822   2.470
  -2.578  -1.127   2.470
  -2.447  -1.418   2.470
  -2.282  -1.691   2.470
  -2.085  -1.943   2.470
  -1.860  -2.168   2.470
  -1.608  -2.365   2.470
  -1.335  -2.530   2.470
  -1.044  -2.661   2.470
  -0.739  -2.756   2.470
  -0.426  -2.814   2.470
  -0.107  -2.833   2.470
   0.212  -2.814   2.470
   0.525  -2.756   2.470
   0.830  -2.661   2.470
   1.121  -2.530   2.470
   1.394  -2.365   2.470
   1.646  -2.168   2.470
   1.871  -1.943   2.470
  -2.763   0.440   2.168
  -2.818   0.127   2.168
  -2.837  -0.190   2.168
  -2.818  -0.507   2.168
  -2.763  -0.820   2.168
  -2.672  -1.124   2.168
  -2.546  -1.415   2.168
  -2.388  -1.690   2.168
  -2.198  -1.945   2.168
  -1.980  -2.176   2.168
  -1.737  -2.380   2.168
  -1.472  -2.554   2.168
  -1.188  -2.697   2.168
  -0.890  -2.805   2.168
  -0.581  -2.878   2.168
  -0.266  -2.915   2.168
   1.766  -2.176   2.168
   1.984  -1.945   2.168
   2.174  -1.690   2.168
  -2.849   0.284   1.859
  -2.885  -0.031   1.859
  -2.885  -0.349   1.859
  -2.849  -0.664   1.859
  -2.777  -0.974   1.859
  -2.670  -1.273   1.859
  -2.530  -1.558   1.859
  -2.358  -1.825   1.859
  -2.157  -2.071   1.859
  -1.929  -2.293   1.859
  -1.678  -2.487   1.859
  -1.405  -2.651   1.859
  -1.116  -2.783   1.859
  -2.478  -1.680   1.545
  -2.296  -1.936   1.545
  -2.087  -2.170   1.545
  -1.853  -2.379   1.545
   3.460   0.829   0.593
   3.440   1.145   0.593
   3.380   1.456   0.593
   3.283   1.758   0.593
   3.148   2.044   0.593
   2.978   2.312   0.593
   2.776   2.556   0.593
   2.545   2.773   0.593
   2.289   2.959   0.593
   2.011   3.112   0.593
   3.283  -0.100   0.593
   3.380   0.202   0.593
   3.440   0.513   0.593
   3.580   0.829   0.303
   3.561   1.148   0.303
   3.503   1.461   0.303
   3.408   1.766   0.303
   3.277   2.057   0.303
   3.112   2.330   0.303
   2.915   2.582   0.303
   2.690   2.807   0.303
   2.438   3.004   0.303
   2.165   3.169   0.303
   3.277  -0.399   0.303
   3.408  -0.108   0.303
   3.503   0.197   0.303
   3.561   0.510   0.303
   3.667   0.829   0.001
   3.648   1.146   0.001
   3.593   1.459   0.001
   3.502   1.763   0.001
   3.376   2.054   0.001
   3.218   2.329   0.001
   3.028   2.584   0.001
   2.810   2.815   0.001
   2.567   3.019   0.001
   2.302   3.193   0.001
   2.018   3.336   0.001
   3.218  -0.671   0.001
   3.376  -0.396   0.001
   3.502  -0.105   0.001
   3.593   0.199   0.001
   3.648   0.512   0.001
   3.719   0.829  -0.308
   3.701   1.146  -0.308
   3.647   1.459  -0.308
   3.558   1.764  -0.308
   3.434   2.057  -0.308
   3.278   2.333  -0.308
   3.091   2.590  -0.308
   2.876   2.824  -0.308
   2.636   3.032  -0.308
   2.374   3.212  -0.308
   2.093   3.360  -0.308
   3.278  -0.675  -0.308
   3.434  -0.399  -0.308
   3.558  -0.106  -0.308
   3.647   0.199  -0.308
   3.701   0.512  -0.308
   3.737   0.829  -0.622
   3.719   1.143  -0.622
   3.667   1.452  -0.622
   3.580   1.754  -0.622
   3.460   2.044  -0.622
   3.308   2.319  -0.622
   3.126   2.575  -0.622
   2.917   2.809  -0.622
   2.683   3.018  -0.622
   2.427   3.200  -0.622
   2.152   3.352  -0.622
   1.862   3.472  -0.622
   3.308  -0.661  -0.622
   3.460  -0.386  -0.622
   3.580  -0.096  -0.622
   3.667   0.206  -0.622
   3.719   0.515  -0.622
   3.719   0.829  -0.935
   3.701   1.146  -0.935
   3.647   1.459  -0.935
   3.558   1.764  -0.935
   3.434   2.057  -0.935
   3.278   2.333  -0.935
   3.091   2.590  -0.935
   2.876   2.824  -0.935
   2.636   3.032  -0.935
   2.374   3.212  -0.935
   2.093   3.360  -0.935
   1.797   3.475  -0.935
   3.091  -0.932  -0.935
   3.278  -0.675  -0.935
   3.434  -0.399  -0.935
   3.558  -0.106  -0.935
   3.647   0.199  -0.935
   3.701   0.512  -0.935
   3.667   0.829  -1.245
   3.648   1.146  -1.245
   3.593   1.459  -1.245
   3.502   1.763  -1.245
   3.376   2.054  -1.245
   3.218   2.329  -1.245
   3.028   2.584  -1.245
   2.810   2.815  -1.245
   2.567   3.019  -1.245
   2.302   3.193  -1.245
   2.018   3.336  -1.245
   1.720   3.444  -1.245
   1.411   3.517  -1.245
   3.028  -0.926  -1.245
   3.218  -0.671  -1.245
   3.376  -0.396  -1.245
   3.502  -0.105  -1.245
   3.593   0.199  -1.245
   3.648   0.512  -1.245
   3.580   0.829  -1.547
   3.561   1.148  -1.547
   3.503   1.461  -1.547
   3.408   1.766  -1.547
   3.277   2.057  -1.547
   3.112   2.330  -1.547
   2.915   2.582  -1.547
   2.690   2.807  -1.547
   2.438   3.004  -1.547
   2.165   3.169  -1.547
   1.874   3.300  -1.547
   1.569   3.395  -1.547
   1.256   3.453  -1.547
   2.915  -0.924  -1.547
   3.112  -0.672  -1.547
   3.277  -0.399  -1.547
   3.408  -0.108  -1.547
   3.503   0.197  -1.547
   3.561   0.510  -1.547
   3.460   0.829  -1.837
   3.440   1.145  -1.837
   3.380   1.456  -1.837
   3.283   1.758  -1.837
   3.148   2.044  -1.837
   2.978   2.312  -1.837
   2.776   2.556  -1.837
   2.545   2.773  -1.837
   2.289   2.959  -1.837
   2.011   3.112  -1.837
   1.717   3.228  -1.837
   1.410   3.307  -1.837
   1.095   3.347  -1.837
   0.779   3.347  -1.837
   2.776  -0.898  -1.837
   2.978  -0.654  -1.837
   3.148  -0.386  -1.837
   3.283  -0.100  -1.837
   3.380   0.202  -1.837
   3.440   0.513  -1.837
   3.308   0.829  -2.112
   3.287   1.145  -2.112
   3.224   1.455  -2.112
   3.120   1.755  -2.112
   2.977   2.037  -2.112
   2.798   2.298  -2.112
   2.585   2.533  -2.112
   2.343   2.738  -2.112
   2.076   2.908  -2.112
   1.789   3.041  -2.112
   1.487   3.135  -2.112
   1.174   3.188  -2.112
   0.858   3.199  -2.112
   0.543   3.167  -2.112
   0.235   3.093  -2.112
   2.585  -0.875  -2.112
   2.798  -0.640  -2.112
   2.977  -0.379  -2.112
   3.120  -0.097  -2.112
   3.224   0.203  -2.112
   3.287   0.513  -2.112
   3.126   0.829  -2.368
   3.103   1.148  -2.368
   3.033   1.460  -2.368
   2.919   1.758  -2.368
   2.763   2.037  -2.368
   2.567   2.290  -2.368
   2.337   2.512  -2.368
   2.077   2.698  -2.368
   1.793   2.844  -2.368
   1.491   2.947  -2.368
   1.176   3.005  -2.368
   0.857   3.017  -2.368
   0.539   2.982  -2.368
   2.337  -0.854  -2.368
   2.567  -0.632  -2.368
   2.763  -0.379  -2.368
   2.919  -0.100  -2.368
   3.033   0.198  -2.368
   3.103   0.510  -2.368
   2.917   0.829  -2.602
   2.891   1.147  -2.602
   2.815   1.456  -2.602
   2.690   1.749  -2.602
   2.520   2.018  -2.602
   2.309   2.257  -2.602
   2.062   2.458  -2.602
   1.786   2.618  -2.602
   1.488   2.731  -2.602
   1.176   2.794  -2.602
   0.857   2.807  -2.602
   0.541   2.769  -2.602
   2.062  -0.800  -2.602
   2.309  -0.599  -2.602
   2.520  -0.360  -2.602
   2.690  -0.091  -2.602
   2.815   0.202  -2.602
   2.891   0.511  -2.602
   2.683   0.829  -2.811
   2.653   1.150  -2.811
   2.565   1.460  -2.811
   2.421   1.748  -2.811
   2.227   2.005  -2.811
   1.989   2.222  -2.811
   1.715   2.392  -2.811
   1.415   2.508  -2.811
   1.098   2.567  -2.811
   0.776   2.567  -2.811
   1.715  -0.734  -2.811
   1.989  -0.564  -2.811
   2.227  -0.347  -2.811
   2.421  -0.090  -2.811
   2.565   0.198  -2.811
   2.653   0.508  -2.811
   2.427   0.829  -2.993
   2.392   1.149  -2.993
   2.289   1.455  -2.993
   2.123   1.731  -2.993
   1.901   1.964  -2.993
   1.635   2.145  -2.993
   1.336   2.264  -2.993
   1.018   2.317  -2.993
   0.696   2.299  -2.993
   1.336  -0.606  -2.993
   1.635  -0.487  -2.993
   1.901  -0.306  -2.993
   2.123  -0.073  -2.993
   2.289   0.203  -2.993
   2.392   0.509  -2.993
   2.152   0.829  -3.145
   2.110   1.143  -3.145
   1.989   1.436  -3.145
   1.796   1.688  -3.145
   1.544   1.881  -3.145
   1.251   2.002  -3.145
   0.937   2.044  -3.145
   0.937  -0.386  -3.145
   1.251  -0.344  -3.145
   1.544  -0.223  -3.145
   1.796  -0.030  -3.145
   1.989   0.222  -3.145
   2.110   0.515  -3.145
   1.862   0.829  -3.265
   1.806   1.145  -3.265
   1.645   1.423  -3.265
   1.399   1.630  -3.265
   1.098   1.740  -3.265
   0.776   1.740  -3.265
   0.776  -0.082  -3.265
   1.098  -0.082  -3.265
   1.399   0.028  -3.265
   1.645   0.235  -3.265
   1.806   0.513  -3.265
   1.560   0.829  -3.352
   1.477   1.141  -3.352
   1.249   1.369  -3.352
   0.937   1.452  -3.352
   0.937   0.206  -3.352
   1.249   0.289  -3.352
   1.477   0.517  -3.352
   1.251   0.829  -3.404
   1.094   1.101  -3.404
   0.780   1.101  -3.404
   0.780   0.557  -3.404
   1.094   0.557  -3.404
   0.937   0.829  -3.422
  -0.212  -2.963   2.135
   0.106  -3.052   2.135
   0.436  -3.070   2.135
   0.761  -3.016   2.135
   1.068  -2.894   2.135
   1.342  -2.709   2.135
   1.569  -2.469   2.135
  -0.725  -2.973   1.949
  -0.445  -3.147   1.949
  -0.137  -3.266   1.949
   0.188  -3.327   1.949
   0.518  -3.327   1.949
   0.843  -3.266   1.949
   1.151  -3.147   1.949
   1.431  -2.973   1.949
   1.675  -2.751   1.949
   1.874  -2.487   1.949
   2.022  -2.191   1.949
   2.112  -1.874   1.949
   2.382  -1.545   1.734
  -1.166  -2.891   1.734
  -0.930  -3.117   1.734
  -0.662  -3.303   1.734
  -0.367  -3.443   1.734
  -0.053  -3.533   1.734
   0.271  -3.573   1.734
   0.598  -3.560   1.734
   0.918  -3.494   1.734
   1.223  -3.378   1.734
   1.506  -3.215   1.734
   1.759  -3.009   1.734
   1.975  -2.764   1.734
   2.150  -2.488   1.734
   2.278  -2.188   1.734
   2.356  -1.871   1.734
   2.597  -1.545   1.494
  -1.604  -2.643   1.494
  -1.423  -2.916   1.494
  -1.204  -3.160   1.494
  -0.953  -3.370   1.494
  -0.673  -3.541   1.494
  -0.372  -3.669   1.494
  -0.055  -3.752   1.494
   0.271  -3.787   1.494
   0.598  -3.775   1.494
   0.921  -3.716   1.494
   1.231  -3.610   1.494
   1.522  -3.460   1.494
   1.788  -3.270   1.494
   2.024  -3.042   1.494
   2.224  -2.783   1.494
   2.385  -2.497   1.494
   2.502  -2.191   1.494
   2.573  -1.872   1.494
   2.783  -1.545   1.232
  -1.816  -2.641   1.232
  -1.650  -2.920   1.232
  -1.449  -3.175   1.232
  -1.216  -3.401   1.232
  -0.955  -3.593   1.232
  -0.670  -3.749   1.232
  -0.367  -3.866   1.232
  -0.051  -3.941   1.232
   0.272  -3.974   1.232
   0.596  -3.963   1.232
   0.916  -3.909   1.232
   1.226  -3.813   1.232
   1.521  -3.676   1.232
   1.794  -3.501   1.232
   2.042  -3.292   1.232
   2.260  -3.051   1.232
   2.444  -2.783   1.232
   2.590  -2.494   1.232
   2.697  -2.187   1.232
   2.761  -1.869   1.232
   2.939  -1.545   0.950
   2.918  -1.221   0.950
  -2.051  -2.497   0.950
  -1.913  -2.791   0.950
  -1.739  -3.065   0.950
  -1.532  -3.315   0.950
  -1.295  -3.537   0.950
  -1.033  -3.728   0.950
  -0.748  -3.885   0.950
  -0.446  -4.004   0.950
  -0.132  -4.085   0.950
   0.191  -4.126   0.950
   0.515  -4.126   0.950
   0.838  -4.085   0.950
   1.152  -4.004   0.950
   1.454  -3.885   0.950
   1.739  -3.728   0.950
   2.001  -3.537   0.950
   2.238  -3.315   0.950
   2.445  -3.065   0.950
   2.619  -2.791   0.950
   2.757  -2.497   0.950
   2.858  -2.188   0.950
   2.918  -1.869   0.950
   3.062  -1.545   0.653
   3.042  -1.218   0.653
  -2.046  -2.804   0.653
  -1.876  -3.084   0.653
  -1.675  -3.341   0.653
  -1.443  -3.573   0.653
  -1.186  -3.774   0.653
  -0.906  -3.944   0.653
  -0.608  -4.078   0.653
  -0.295  -4.175   0.653
   0.026  -4.234   0.653
   0.353  -4.254   0.653
   0.680  -4.234   0.653
   1.001  -4.175   0.653
   1.314  -4.078   0.653
   1.612  -3.944   0.653
   1.892  -3.774   0.653
   2.149  -3.573   0.653
   2.381  -3.341   0.653
   2.582  -3.084   0.653
   2.752  -2.804   0.653
   2.886  -2.506   0.653
   2.983  -2.193   0.653
   3.042  -1.872   0.653
   3.151  -1.545   0.344
   3.132  -1.220   0.344
  -2.147  -2.801   0.344
  -1.985  -3.083   0.344
  -1.790  -3.344   0.344
  -1.567  -3.580   0.344
  -1.318  -3.789   0.344
  -1.046  -3.968   0.344
  -0.755  -4.114   0.344
  -0.449  -4.225   0.344
  -0.133  -4.301   0.344
   0.190  -4.338   0.344
   0.516  -4.338   0.344
   0.839  -4.301   0.344
   1.155  -4.225   0.344
   1.461  -4.114   0.344
   1.752  -3.968   0.344
   2.024  -3.789   0.344
   2.273  -3.580   0.344
   2.496  -3.344   0.344
   2.691  -3.083   0.344
   2.853  -2.801   0.344
   2.982  -2.502   0.344
   3.076  -2.190   0.344
   3.132  -1.870   0.344
   3.205  -1.545   0.026
   3.186  -1.220   0.026
  -2.130  -2.947   0.026
  -1.954  -3.221   0.026
  -1.748  -3.473   0.026
  -1.515  -3.700   0.026
  -1.257  -3.899   0.026
  -0.978  -4.067   0.026
  -0.682  -4.203   0.026
  -0.372  -4.303   0.026
  -0.053  -4.368   0.026
   0.272  -4.396   0.026
   0.597  -4.386   0.026
   0.919  -4.340   0.026
   1.234  -4.257   0.026
   1.538  -4.139   0.026
   1.826  -3.987   0.026
   2.095  -3.803   0.026
   2.341  -3.590   0.026
   2.561  -3.350   0.026
   2.752  -3.087   0.026
   2.912  -2.803   0.026
   3.039  -2.503   0.026
   3.131  -2.191   0.026
   3.186  -1.870   0.026
   3.223  -1.545  -0.295
   3.205  -1.224  -0.295
   3.151  -0.906  -0.295
  -2.077  -3.072  -0.295
  -1.891  -3.334  -0.295
  -1.676  -3.574  -0.295
  -1.436  -3.789  -0.295
  -1.174  -3.975  -0.295
  -0.892  -4.131  -0.295
  -0.595  -4.254  -0.295
  -0.286  -4.343  -0.295
   0.032  -4.397  -0.295
   0.353  -4.415  -0.295
   0.674  -4.397  -0.295
   0.992  -4.343  -0.295
   1.301  -4.254  -0.295
   1.598  -4.131  -0.295
   1.880  -3.975  -0.295
   2.142  -3.789  -0.295
   2.382  -3.574  -0.295
   2.597  -3.334  -0.295
   2.783  -3.072  -0.295
   2.939  -2.790  -0.295
   3.062  -2.493  -0.295
   3.151  -2.184  -0.295
   3.205  -1.866  -0.295
   3.205  -1.545  -0.616
   3.186  -1.220  -0.616
  -2.130  -2.947  -0.616
  -1.954  -3.221  -0.616
  -1.748  -3.473  -0.616
  -1.515  -3.700  -0.616
  -1.257  -3.899  -0.616
  -0.978  -4.067  -0.616
  -0.682  -4.203  -0.616
  -0.372  -4.303  -0.616
  -0.053  -4.368  -0.616
   0.272  -4.396  -0.616
   0.597  -4.386  -0.616
   0.919  -4.340  -0.616
   1.234  -4.257  -0.616
   1.538  -4.139  -0.616
   1.826  -3.987  -0.616
   2.095  -3.803  -0.616
   2.341  -3.590  -0.616
   2.561  -3.350  -0.616
   2.752  -3.087  -0.616
   2.912  -2.803  -0.616
   3.039  -2.503  -0.616
   3.131  -2.191  -0.616
   3.186  -1.870  -0.616
   3.151  -1.545  -0.934
   3.132  -1.220  -0.934
  -1.985  -3.083  -0.934
  -1.790  -3.344  -0.934
  -1.567  -3.580  -0.934
  -1.318  -3.789  -0.934
  -1.046  -3.968  -0.934
  -0.755  -4.114  -0.934
  -0.449  -4.225  -0.934
  -0.133  -4.301  -0.934
   0.190  -4.338  -0.934
   0.516  -4.338  -0.934
   0.839  -4.301  -0.934
   1.155  -4.226  -0.934
   1.461  -4.114  -0.934
   1.752  -3.968  -0.934
   2.024  -3.789  -0.934
   2.273  -3.580  -0.934
   2.496  -3.344  -0.934
   2.691  -3.083  -0.934
   2.853  -2.801  -0.934
   2.982  -2.502  -0.934
   3.076  -2.190  -0.934
   3.132  -1.870  -0.934
   3.062  -1.545  -1.243
   3.042  -1.218  -1.243
  -1.876  -3.084  -1.243
  -1.675  -3.341  -1.243
  -1.443  -3.573  -1.243
  -1.186  -3.774  -1.243
  -0.906  -3.944  -1.243
  -0.608  -4.078  -1.243
  -0.295  -4.175  -1.243
   0.026  -4.234  -1.243
   0.353  -4.254  -1.243
   0.680  -4.234  -1.243
   1.001  -4.175  -1.243
   1.314  -4.078  -1.243
   1.612  -3.944  -1.243
   1.892  -3.774  -1.243
   2.149  -3.573  -1.243
   2.381  -3.341  -1.243
   2.582  -3.084  -1.243
   2.752  -2.804  -1.243
   2.886  -2.506  -1.243
   2.983  -2.193  -1.243
   3.042  -1.872  -1.243
   2.939  -1.545  -1.540
   2.918  -1.221  -1.540
  -1.913  -2.791  -1.540
  -1.739  -3.065  -1.540
  -1.532  -3.315  -1.540
  -1.295  -3.537  -1.540
  -1.033  -3.728  -1.540
  -0.748  -3.885  -1.540
  -0.446  -4.004  -1.540
  -0.132  -4.085  -1.540
   0.191  -4.126  -1.540
   0.515  -4.126  -1.540
   0.838  -4.085  -1.540
   1.152  -4.004  -1.540
   1.454  -3.885  -1.540
   1.739  -3.728  -1.540
   2.001  -3.537  -1.540
   2.238  -3.315  -1.540
   2.445  -3.065  -1.540
   2.619  -2.791  -1.540
   2.757  -2.497  -1.540
   2.858  -2.188  -1.540
   2.918  -1.869  -1.540
   2.783  -1.545  -1.822
   2.761  -1.221  -1.822
  -1.650  -2.920  -1.822
  -1.449  -3.175  -1.822
  -1.216  -3.401  -1.822
  -0.955  -3.593  -1.822
  -0.670  -3.749  -1.822
  -0.367  -3.866  -1.822
  -0.051  -3.941  -1.822
   0.272  -3.974  -1.822
   0.596  -3.963  -1.822
   0.916  -3.909  -1.822
   1.226  -3.813  -1.822
   1.521  -3.676  -1.822
   1.794  -3.501  -1.822
   2.042  -3.292  -1.822
   2.260  -3.051  -1.822
   2.444  -2.783  -1.822
   2.590  -2.494  -1.822
   2.697  -2.187  -1.822
   2.761  -1.869  -1.822
   2.597  -1.545  -2.084
   2.573  -1.218  -2.084
  -1.604  -2.643  -2.084
  -1.423  -2.916  -2.084
  -1.204  -3.160  -2.084
  -0.953  -3.370  -2.084
  -0.673  -3.541  -2.084
  -0.372  -3.669  -2.084
  -0.055  -3.752  -2.084
   0.271  -3.787  -2.084
   0.598  -3.775  -2.084
   0.921  -3.716  -2.084
   1.231  -3.610  -2.084
   1.522  -3.460  -2.084
   1.788  -3.270  -2.084
   2.024  -3.042  -2.084
   2.224  -2.783  -2.084
   2.385  -2.497  -2.084
   2.502  -2.191  -2.084
   2.573  -1.872  -2.084
   2.382  -1.545  -2.324
   2.356  -1.219  -2.324
  -1.362  -2.630  -2.324
  -1.166  -2.891  -2.324
  -0.930  -3.117  -2.324
  -0.662  -3.303  -2.324
  -0.367  -3.443  -2.324
  -0.053  -3.533  -2.324
   0.271  -3.573  -2.324
   0.598  -3.560  -2.324
   0.918  -3.494  -2.324
   1.223  -3.378  -2.324
   1.506  -3.215  -2.324
   1.759  -3.009  -2.324
   1.975  -2.764  -2.324
   2.150  -2.488  -2.324
   2.278  -2.188  -2.324
   2.356  -1.871  -2.324
   2.142  -1.545  -2.539
   2.112  -1.216  -2.539
  -1.316  -2.191  -2.539
  -1.168  -2.487  -2.539
  -0.969  -2.751  -2.539
  -0.725  -2.973  -2.539
  -0.445  -3.147  -2.539
  -0.137  -3.266  -2.539
   0.188  -3.327  -2.539
   0.518  -3.327  -2.539
   0.843  -3.266  -2.539
   1.151  -3.147  -2.539
   1.431  -2.973  -2.539
   1.675  -2.751  -2.539
   1.874  -2.487  -2.539
   2.022  -2.191  -2.539
   2.112  -1.874  -2.539
   1.880  -1.545  -2.725
   1.844  -1.217  -2.725
   1.739  -0.904  -2.725
  -1.094  -2.033  -2.725
  -0.955  -2.332  -2.725
  -0.756  -2.595  -2.725
  -0.504  -2.809  -2.725
  -0.212  -2.963  -2.725
   0.106  -3.052  -2.725
   0.436  -3.070  -2.725
   0.761  -3.016  -2.725
   1.068  -2.894  -2.725
   1.342  -2.709  -2.725
   1.569  -2.469  -2.725
   1.739  -2.186  -2.725
   1.844  -1.873  -2.725
   1.598  -1.545  -2.881
   1.556  -1.223  -2.881
   1.431  -0.922  -2.881
  -0.850  -1.867  -2.881
  -0.725  -2.168  -2.881
  -0.528  -2.426  -2.881
  -0.270  -2.623  -2.881
   0.031  -2.748  -2.881
   0.353  -2.790  -2.881
   0.675  -2.748  -2.881
   0.976  -2.623  -2.881
   1.234  -2.426  -2.881
   1.431  -2.168  -2.881
   1.556  -1.867  -2.881
   1.301  -1.545  -3.004
   1.244  -1.221  -3.004
   1.079  -0.936  -3.004
  -0.595  -1.545  -3.004
  -0.538  -1.869  -3.004
  -0.373  -2.154  -3.004
  -0.121  -2.366  -3.004
   0.188  -2.479  -3.004
   0.518  -2.479  -3.004
   0.827  -2.366  -3.004
   1.079  -2.154  -3.004
   1.244  -1.869  -3.004
   0.992  -1.545  -3.093
   0.906  -1.226  -3.093
   0.672  -0.992  -3.093
  -0.200  -1.226  -3.093
  -0.286  -1.545  -3.093
  -0.200  -1.864  -3.093
   0.034  -2.098  -3.093
   0.353  -2.184  -3.093
   0.672  -2.098  -3.093
   0.906  -1.864  -3.093
   0.674  -1.545  -3.147
   0.514  -1.267  -3.147
   0.192  -1.267  -3.147
   0.032  -1.545  -3.147
   0.192  -1.823  -3.147
   0.514  -1.823  -3.147
   0.353  -1.545  -3.165
  -2.898   0.329   1.761
  -2.967   0.014   1.761
  -2.967  -0.308   1.761
  -2.898  -0.623   1.761
  -3.114   0.484   1.579
  -3.202   0.174   1.579
  -3.232  -0.147   1.579
  -3.202  -0.468   1.579
  -3.114  -0.778   1.579
  -2.970  -1.066   1.579
  -2.776  -1.323   1.579
  -3.459   0.012   1.370
  -3.459  -0.306   1.370
  -3.408  -0.621   1.370
  -3.307  -0.923   1.370
  -3.159  -1.205   1.370
  -2.968  -1.460   1.370
  -2.738  -1.681   1.370
  -2.476  -1.862   1.370
  -3.669  -0.307   1.136
  -3.623  -0.623   1.136
  -3.531  -0.929   1.136
  -3.395  -1.218   1.136
  -3.219  -1.485   1.136
  -3.005  -1.723   1.136
  -2.760  -1.927   1.136
  -2.487  -2.094   1.136
  -3.809  -0.619   0.880
  -3.726  -0.925   0.880
  -3.602  -1.216   0.880
  -3.441  -1.489   0.880
  -3.244  -1.737   0.880
  -3.017  -1.957   0.880
  -2.762  -2.145   0.880
  -2.484  -2.298   0.880
  -2.188  -2.411   0.880
  -3.929  -0.774   0.605
  -3.832  -1.076   0.605
  -3.697  -1.362   0.605
  -3.527  -1.630   0.605
  -3.325  -1.874   0.605
  -3.094  -2.091   0.605
  -2.838  -2.277   0.605
  -2.560  -2.430   0.605
  -2.266  -2.546   0.605
  -3.957  -1.084   0.315
  -3.826  -1.375   0.315
  -3.661  -1.648   0.315
  -3.464  -1.900   0.315
  -3.239  -2.125   0.315
  -2.987  -2.322   0.315
  -2.714  -2.487   0.315
  -2.423  -2.618   0.315
  -3.767  -1.647   0.013
  -3.577  -1.902   0.013
  -3.359  -2.133   0.013
  -3.116  -2.337   0.013
  -2.851  -2.511   0.013
  -2.567  -2.654   0.013
  -2.269  -2.762   0.013
  -3.737  -1.782  -0.296
  -3.536  -2.028  -0.296
  -3.308  -2.250  -0.296
  -3.057  -2.444  -0.296
  -2.784  -2.608  -0.296
  -2.495  -2.740  -0.296
  -3.675  -1.893  -0.610
  -3.466  -2.127  -0.610
  -3.232  -2.336  -0.610
  -2.976  -2.518  -0.610
  -2.701  -2.670  -0.610
  -2.411  -2.790  -0.610
  -3.308  -2.250  -0.923
  -3.057  -2.444  -0.923
  -2.784  -2.608  -0.923
  -2.495  -2.740  -0.923
  -2.193  -2.838  -0.923
  -3.116  -2.337  -1.233
  -2.851  -2.511  -1.233
  -2.567  -2.654  -1.233
  -2.269  -2.762  -1.233
  -2.987  -2.322  -1.535
  -2.714  -2.487  -1.535
  -2.423  -2.618  -1.535
  -2.118  -2.713  -1.535
  -2.838  -2.277  -1.825
  -2.560  -2.430  -1.825
  -2.266  -2.546  -1.825
  -1.959  -2.625  -1.825
  -2.762  -2.145  -2.100
  -2.484  -2.298  -2.100
  -2.188  -2.411  -2.100
  -1.880  -2.485  -2.100
  -2.487  -2.094  -2.356
  -2.193  -2.219  -2.356
  -1.884  -2.300  -2.356
  -1.566  -2.335  -2.356
  -2.188  -1.998  -2.590
  -1.882  -2.087  -2.590
  -1.566  -2.125  -2.590
  -1.647  -1.885  -2.799
  -1.325  -1.885  -2.799
  -1.087  -1.582  -2.981
  -0.788  -1.463  -2.981
  -3.497   0.856   1.416
  -3.451   0.508   1.416
  -3.792   1.034   1.248
  -3.792   0.678   1.248
  -3.715   0.329   1.248
  -4.085   0.856   1.047
  -4.052   0.501   1.047
  -3.954   0.158   1.047
  -3.795  -0.161   1.047
  -4.337   1.032   0.815
  -4.337   0.680   0.815
  -4.280   0.331   0.815
  -4.169  -0.003   0.815
  -4.005  -0.316   0.815
  -4.518   1.383   0.556
  -4.569   1.033   0.556
  -4.569   0.679   0.556
  -4.518   0.329   0.556
  -4.416  -0.010   0.556
  -4.266  -0.330   0.556
  -4.070  -0.625   0.556
  -4.724   1.379   0.272
  -4.771   1.031   0.272
  -4.857   1.551  -0.032
  -4.888   1.894  -0.353
  -4.853   2.212  -0.687
  -4.992   1.890  -0.687
  -4.834   2.371  -1.030
  -4.576   2.789  -1.377
  -4.777   2.505  -1.377
  -4.422   2.939  -1.724
  -4.644   2.667  -1.724
  -4.834   2.371  -1.724
  -1.285   3.751  -2.067
  -3.957   3.280  -2.067
  -4.226   3.054  -2.067
  -4.467   2.799  -2.067
  -4.677   2.517  -2.067
  -1.452   3.697  -2.401
  -1.799   3.761  -2.401
  -2.152   3.782  -2.401
  -2.505   3.761  -2.401
  -2.852   3.697  -2.401
  -3.190   3.592  -2.401
  -3.512   3.447  -2.401
  -3.814   3.264  -2.401
  -4.092   3.046  -2.401
  -4.342   2.796  -2.401
  -4.560   2.518  -2.401
  -2.505  -2.049  -2.401
  -1.977   3.643  -2.722
  -2.327   3.643  -2.722
  -2.675   3.600  -2.722
  -3.015   3.512  -2.722
  -3.341   3.383  -2.722
  -3.649   3.214  -2.722
  -3.932   3.008  -2.722
  -4.188   2.768  -2.722
  -4.412   2.498  -2.722
  -2.327  -1.931  -2.722
  -1.977  -1.931  -2.722
  -2.240   3.479  -3.026
  -2.589   3.444  -3.026
  -2.930   3.363  -3.026
  -3.257   3.237  -3.026
  -3.564   3.068  -3.026
  -3.847   2.860  -3.026
  -4.099   2.617  -3.026
  -4.316   2.342  -3.026
  -2.240  -1.767  -3.026
  -1.889  -1.756  -3.026
  -1.544  -1.697  -3.026
  -1.209  -1.593  -3.026
  -0.891  -1.446  -3.026
  -0.595  -1.257  -3.026
  -2.592   3.239  -3.310
  -2.935   3.150  -3.310
  -3.260   3.011  -3.310
  -3.562   2.827  -3.310
  -3.834   2.601  -3.310
  -4.070   2.337  -3.310
  -2.241  -1.566  -3.310
  -1.887  -1.553  -3.310
  -1.539  -1.489  -3.310
  -1.204  -1.375  -3.310
  -0.889  -1.213  -3.310
  -2.929   2.906  -3.569
  -3.248   2.754  -3.569
  -3.538   2.554  -3.569
  -3.793   2.310  -3.569
  -4.005   2.028  -3.569
  -2.240  -1.334  -3.569
  -1.888  -1.320  -3.569
  -1.542  -1.249  -3.569
  -3.317   2.398  -3.801
  -3.580   2.158  -3.801
  -3.795   1.874  -3.801
  -2.330  -1.069  -3.801
  -1.974  -1.069  -3.801
  -3.349   1.990  -4.002
  -3.565   1.706  -4.002
  -3.715   1.383  -4.002
  -2.419  -0.772  -4.002
  -2.063  -0.791  -4.002
  -3.317   1.529  -4.170
  -3.451   1.204  -4.170
  -2.825  -0.309  -4.170
  -2.500  -0.443  -4.170
  -3.176   0.856  -4.303
  -3.114   0.506  -4.303
  -2.936   0.198  -4.303
  -3.865   1.434   1.277
  -3.784   1.146   1.277
  -4.057   2.172   1.082
  -4.105   1.880   1.082
  -4.105   1.584   1.082
  -4.057   1.292   1.082
  -4.045   2.727   0.865
  -4.171   2.458   0.865
  -4.256   2.174   0.865
  -4.299   1.880   0.865
  -4.299   1.584   0.865
  -4.256   1.290   0.865
  -4.087   2.978   0.627
  -4.237   2.725   0.627
  -4.352   2.454   0.627
  -4.429   2.171   0.627
  -4.469   1.879   0.627
  -4.469   1.585   0.627
  -3.980   3.336   0.372
  -4.167   3.109   0.372
  -4.325   2.861   0.372
  -4.450   2.594   0.372
  -4.541   2.315   0.372
  -4.596   2.026   0.372
  -4.615   1.732   0.372
  -3.666   3.752   0.103
  -3.899   3.569   0.103
  -4.109   3.359   0.103
  -4.292   3.126   0.103
  -4.445   2.872   0.103
  -4.567   2.602   0.103
  -4.655   2.319   0.103
  -4.708   2.028   0.103
  -3.539   3.927  -0.177
  -3.786   3.765  -0.177
  -4.011   3.576  -0.177
  -4.214   3.361  -0.177
  -4.390   3.125  -0.177
  -4.537   2.870  -0.177
  -4.654   2.599  -0.177
  -4.738   2.317  -0.177
  -4.790   2.026  -0.177
  -3.209   4.140  -0.465
  -3.478   4.017  -0.465
  -3.730   3.865  -0.465
  -3.964   3.685  -0.465
  -4.175   3.479  -0.465
  -4.362   3.251  -0.465
  -4.522   3.002  -0.465
  -4.652   2.738  -0.465
  -4.751   2.460  -0.465
  -4.818   2.173  -0.465
  -2.851   4.267  -0.756
  -3.131   4.186  -0.756
  -3.400   4.075  -0.756
  -3.655   3.933  -0.756
  -3.893   3.765  -0.756
  -4.110   3.570  -0.756
  -4.305   3.353  -0.756
  -4.473   3.115  -0.756
  -4.615   2.860  -0.756
  -4.726   2.591  -0.756
  -2.640   4.289  -1.047
  -2.929   4.231  -1.047
  -3.209   4.140  -1.047
  -3.478   4.017  -1.047
  -3.730   3.865  -1.047
  -3.964   3.685  -1.047
  -4.175   3.479  -1.047
  -4.362   3.251  -1.047
  -4.522   3.002  -1.047
  -4.652   2.738  -1.047
  -2.419   4.263  -1.335
  -2.712   4.228  -1.335
  -2.999   4.160  -1.335
  -3.276   4.060  -1.335
  -3.539   3.927  -1.335
  -3.786   3.765  -1.335
  -4.011   3.576  -1.335
  -4.214   3.361  -1.335
  -4.390   3.125  -1.335
  -4.537   2.870  -1.335
  -1.976   4.168  -1.615
  -2.272   4.186  -1.615
  -2.568   4.168  -1.615
  -2.859   4.115  -1.615
  -3.142   4.027  -1.615
  -3.412   3.905  -1.615
  -3.666   3.752  -1.615
  -3.899   3.569  -1.615
  -4.109   3.359  -1.615
  -4.292   3.126  -1.615
  -1.548   3.960  -1.884
  -1.833   4.033  -1.884
  -2.125   4.070  -1.884
  -2.419   4.070  -1.884
  -2.711   4.033  -1.884
  -2.996   3.960  -1.884
  -3.269   3.852  -1.884
  -3.527   3.710  -1.884
  -3.765   3.537  -1.884
  -3.980   3.336  -1.884
  -1.481   3.786  -2.139
  -1.762   3.874  -2.139
  -2.052   3.922  -2.139
  -2.346   3.932  -2.139
  -2.638   3.903  -2.139
  -2.924   3.835  -2.139
  -3.199   3.729  -2.139
  -3.457   3.588  -2.139
   0.058   3.115  -2.259
  -0.180   3.283  -2.259