 $system timlim=999888777
         mwords=100 $end
 $contrl exetyp=run
         runtyp=energy scftyp=rhf
         icharg=-1 mult=1 units=angs coord=unique
         maxit=50 ispher=1 qmttol=1d-6 icut=12 itol=22 $end
 $scf    dirscf=.t. diis=.t. soscf=.f.
         fdiff=.f. conv=1d-6
         npreo(1)=0,-1,1,9999 $end
 $elpot  iepot=1 where=points $end
 $basis  gbasis=n311 ngauss=6
         ndfunc=1 npfunc=1 diffsp=.t. diffs=.t. $end
 $DATA
TS1a_hfd_irc200_all_revmov.pdb
C1
P     15.0    -0.05100  -0.03800  -0.00600 
O      8.0    -0.08300  -0.25200   1.54300 
O      8.0     0.97100   0.78700  -0.63100 
F      9.0     0.32200  -1.55500  -0.32600 
O      8.0    -1.48900  -0.14300  -0.61400 
C      6.0    -2.15200   0.85600  -1.37700 
H      1.0    -2.34900   1.70200  -0.74100 
H      1.0    -1.52700   1.15000  -2.21200 
H      1.0    -3.05100   0.38100  -1.74900 
C      6.0     0.39100   0.65900   2.52500 
H      1.0     0.34600   0.11700   3.46300 
H      1.0     1.42100   0.92200   2.31100 
H      1.0    -0.23000   1.53700   2.51000 
O      8.0    -1.09300   2.27200   0.79100 
H      1.0    -0.48400   2.90100   0.42500 
 $END
 $POINTS
ANGS 3036
  -2.218  -2.073   1.426
  -2.117  -2.369   1.084
   2.861  -1.143   1.084
   2.973  -0.783   1.084
   2.972  -1.138   0.728
   3.080  -0.780   0.728
   3.145  -0.412   0.728
   3.143  -0.781   0.363
   1.189  -0.754  -2.979
  -0.240  -1.111  -3.121
   0.784  -0.739  -3.121
  -0.051  -0.772  -3.223
   0.316  -0.674  -3.223
   0.585  -0.405  -3.223
  -2.128  -1.034   3.289
  -1.992  -1.323   3.289
  -1.816  -1.590   3.289
  -1.602  -1.828   3.289
  -1.357  -2.032   3.289
  -1.084  -2.199   3.289
  -0.790  -2.324   3.289
  -0.481  -2.405   3.289
  -0.163  -2.440   3.289
  -2.406  -0.724   3.033
  -2.323  -1.030   3.033
  -2.199  -1.321   3.033
  -2.038  -1.594   3.033
  -1.841  -1.842   3.033
  -1.614  -2.062   3.033
  -1.359  -2.250   3.033
  -1.081  -2.403   3.033
  -0.785  -2.516   3.033
  -0.477  -2.590   3.033
  -0.162  -2.622   3.033
   0.154  -2.611   3.033
   0.467  -2.558   3.033
   0.769  -2.464   3.033
  -2.606  -0.252   2.758
  -2.586  -0.568   2.758
  -2.526  -0.879   2.758
  -2.429  -1.181   2.758
  -2.294  -1.467   2.758
  -2.124  -1.735   2.758
  -1.922  -1.979   2.758
  -1.691  -2.196   2.758
  -1.435  -2.382   2.758
  -1.157  -2.535   2.758
  -0.863  -2.651   2.758
  -0.556  -2.730   2.758
  -0.241  -2.770   2.758
   0.075  -2.770   2.758
   0.390  -2.730   2.758
   0.697  -2.651   2.758
   0.991  -2.535   2.758
   1.269  -2.382   2.758
  -2.707   0.067   2.468
  -2.726  -0.252   2.468
  -2.707  -0.571   2.468
  -2.649  -0.884   2.468
  -2.554  -1.189   2.468
  -2.423  -1.480   2.468
  -2.258  -1.753   2.468
  -2.061  -2.005   2.468
  -1.836  -2.230   2.468
  -1.584  -2.427   2.468
  -1.311  -2.592   2.468
  -1.020  -2.723   2.468
  -0.715  -2.818   2.468
  -0.402  -2.876   2.468
  -0.083  -2.895   2.468
   0.236  -2.876   2.468
   0.549  -2.818   2.468
   0.854  -2.723   2.468
   1.145  -2.592   2.468
   1.418  -2.427   2.468
   1.670  -2.230   2.468
  -2.739   0.378   2.166
  -2.794   0.065   2.166
  -2.813  -0.252   2.166
  -2.794  -0.569   2.166
  -2.739  -0.882   2.166
  -2.648  -1.186   2.166
  -2.522  -1.477   2.166
  -2.364  -1.752   2.166
  -2.174  -2.007   2.166
  -1.956  -2.238   2.166
  -1.713  -2.442   2.166
  -1.448  -2.616   2.166
  -1.164  -2.759   2.166
  -0.866  -2.867   2.166
  -0.557  -2.940   2.166
  -0.242  -2.977   2.166
   0.076  -2.977   2.166
   1.282  -2.616   2.166
   1.547  -2.442   2.166
   1.790  -2.238   2.166
   2.008  -2.007   2.166
  -2.825   0.222   1.857
  -2.861  -0.093   1.857
  -2.861  -0.411   1.857
  -2.825  -0.726   1.857
  -2.753  -1.036   1.857
  -2.646  -1.335   1.857
  -2.506  -1.620   1.857
  -2.334  -1.887   1.857
  -2.133  -2.133   1.857
  -1.905  -2.355   1.857
  -1.654  -2.549   1.857
  -1.381  -2.713   1.857
  -1.092  -2.845   1.857
   2.258  -1.756   1.857
  -2.454  -1.742   1.543
  -2.272  -1.998   1.543
  -2.063  -2.232   1.543
  -1.829  -2.441   1.543
   3.494   0.787   0.584
   3.474   1.103   0.584
   3.414   1.414   0.584
   3.317   1.716   0.584
   3.182   2.002   0.584
   3.012   2.270   0.584
   2.810   2.514   0.584
   2.579   2.731   0.584
   2.323   2.917   0.584
   3.182  -0.428   0.584
   3.317  -0.142   0.584
   3.414   0.160   0.584
   3.474   0.471   0.584
   3.614   0.787   0.294
   3.595   1.106   0.294
   3.537   1.419   0.294
   3.442   1.724   0.294
   3.311   2.015   0.294
   3.146   2.288   0.294
   2.949   2.540   0.294
   2.724   2.765   0.294
   2.472   2.962   0.294
   2.199   3.127   0.294
   3.311  -0.441   0.294
   3.442  -0.150   0.294
   3.537   0.155   0.294
   3.595   0.468   0.294
   3.701   0.787  -0.008
   3.682   1.104  -0.008
   3.627   1.417  -0.008
   3.536   1.721  -0.008
   3.410   2.012  -0.008
   3.252   2.287  -0.008
   3.062   2.542  -0.008
   2.844   2.773  -0.008
   2.601   2.977  -0.008
   2.336   3.151  -0.008
   2.052   3.294  -0.008
   3.252  -0.713  -0.008
   3.410  -0.438  -0.008
   3.536  -0.147  -0.008
   3.627   0.157  -0.008
   3.682   0.470  -0.008
   3.753   0.787  -0.317
   3.735   1.104  -0.317
   3.681   1.417  -0.317
   3.592   1.722  -0.317
   3.468   2.015  -0.317
   3.312   2.291  -0.317
   3.125   2.548  -0.317
   2.910   2.782  -0.317
   2.670   2.990  -0.317
   2.408   3.170  -0.317
   2.127   3.318  -0.317
   3.312  -0.717  -0.317
   3.468  -0.441  -0.317
   3.592  -0.148  -0.317
   3.681   0.157  -0.317
   3.735   0.470  -0.317
   3.771   0.787  -0.631
   3.753   1.101  -0.631
   3.701   1.410  -0.631
   3.614   1.712  -0.631
   3.494   2.002  -0.631
   3.342   2.277  -0.631
   3.160   2.533  -0.631
   2.951   2.767  -0.631
   2.717   2.976  -0.631
   2.461   3.158  -0.631
   2.186   3.310  -0.631
   1.896   3.430  -0.631
   3.160  -0.959  -0.631
   3.342  -0.703  -0.631
   3.494  -0.428  -0.631
   3.614  -0.138  -0.631
   3.701   0.164  -0.631
   3.753   0.473  -0.631
   3.753   0.787  -0.944
   3.735   1.104  -0.944
   3.681   1.417  -0.944
   3.592   1.722  -0.944
   3.468   2.015  -0.944
   3.312   2.291  -0.944
   3.125   2.548  -0.944
   2.910   2.782  -0.944
   2.670   2.990  -0.944
   2.408   3.170  -0.944
   2.127   3.318  -0.944
   1.831   3.433  -0.944
   3.125  -0.974  -0.944
   3.312  -0.717  -0.944
   3.468  -0.441  -0.944
   3.592  -0.148  -0.944
   3.681   0.157  -0.944
   3.735   0.470  -0.944
   3.701   0.787  -1.254
   3.682   1.104  -1.254
   3.627   1.417  -1.254
   3.536   1.721  -1.254
   3.410   2.012  -1.254
   3.252   2.287  -1.254
   3.062   2.542  -1.254
   2.844   2.773  -1.254
   2.601   2.977  -1.254
   2.336   3.151  -1.254
   2.052   3.294  -1.254
   1.754   3.402  -1.254
   1.445   3.475  -1.254
   3.062  -0.968  -1.254
   3.252  -0.713  -1.254
   3.410  -0.438  -1.254
   3.536  -0.147  -1.254
   3.627   0.157  -1.254
   3.682   0.470  -1.254
   3.614   0.787  -1.556
   3.595   1.106  -1.556
   3.537   1.419  -1.556
   3.442   1.724  -1.556
   3.311   2.015  -1.556
   3.146   2.288  -1.556
   2.949   2.540  -1.556
   2.724   2.765  -1.556
   2.472   2.962  -1.556
   2.199   3.127  -1.556
   1.908   3.258  -1.556
   1.603   3.353  -1.556
   1.290   3.411  -1.556
   2.949  -0.966  -1.556
   3.146  -0.714  -1.556
   3.311  -0.441  -1.556
   3.442  -0.150  -1.556
   3.537   0.155  -1.556
   3.595   0.468  -1.556
   3.494   0.787  -1.846
   3.474   1.103  -1.846
   3.414   1.414  -1.846
   3.317   1.716  -1.846
   3.182   2.002  -1.846
   3.012   2.270  -1.846
   2.810   2.514  -1.846
   2.579   2.731  -1.846
   2.323   2.917  -1.846
   2.045   3.070  -1.846
   1.751   3.186  -1.846
   1.444   3.265  -1.846
   1.129   3.305  -1.846
   0.813   3.305  -1.846
   2.810  -0.940  -1.846
   3.012  -0.696  -1.846
   3.182  -0.428  -1.846
   3.317  -0.142  -1.846
   3.414   0.160  -1.846
   3.474   0.471  -1.846
   3.342   0.787  -2.121
   3.321   1.103  -2.121
   3.258   1.413  -2.121
   3.154   1.713  -2.121
   3.011   1.995  -2.121
   2.832   2.256  -2.121
   2.619   2.491  -2.121
   2.377   2.696  -2.121
   2.110   2.866  -2.121
   1.823   2.999  -2.121
   1.521   3.093  -2.121
   1.208   3.146  -2.121
   0.892   3.157  -2.121
   0.577   3.125  -2.121
   0.269   3.051  -2.121
   2.619  -0.917  -2.121
   2.832  -0.682  -2.121
   3.011  -0.421  -2.121
   3.154  -0.139  -2.121
   3.258   0.161  -2.121
   3.321   0.471  -2.121
   3.160   0.787  -2.377
   3.137   1.106  -2.377
   3.067   1.418  -2.377
   2.953   1.716  -2.377
   2.797   1.995  -2.377
   2.601   2.248  -2.377
   2.371   2.470  -2.377
   2.111   2.656  -2.377
   1.827   2.802  -2.377
   1.525   2.905  -2.377
   1.210   2.963  -2.377
   0.891   2.975  -2.377
   0.573   2.940  -2.377
   2.371  -0.896  -2.377
   2.601  -0.674  -2.377
   2.797  -0.421  -2.377
   2.953  -0.142  -2.377
   3.067   0.156  -2.377
   3.137   0.468  -2.377
   2.951   0.787  -2.611
   2.925   1.105  -2.611
   2.849   1.414  -2.611
   2.724   1.707  -2.611
   2.554   1.976  -2.611
   2.343   2.215  -2.611
   2.096   2.416  -2.611
   1.820   2.576  -2.611
   1.522   2.689  -2.611
   1.210   2.752  -2.611
   0.891   2.765  -2.611
   0.575   2.727  -2.611
   2.096  -0.842  -2.611
   2.343  -0.641  -2.611
   2.554  -0.402  -2.611
   2.724  -0.133  -2.611
   2.849   0.160  -2.611
   2.925   0.469  -2.611
   2.717   0.787  -2.820
   2.687   1.108  -2.820
   2.599   1.418  -2.820
   2.455   1.706  -2.820
   2.261   1.963  -2.820
   2.023   2.180  -2.820
   1.749   2.350  -2.820
   1.449   2.466  -2.820
   1.132   2.525  -2.820
   0.810   2.525  -2.820
   1.749  -0.776  -2.820
   2.023  -0.606  -2.820
   2.261  -0.389  -2.820
   2.455  -0.132  -2.820
   2.599   0.156  -2.820
   2.687   0.466  -2.820
   2.461   0.787  -3.002
   2.426   1.107  -3.002
   2.323   1.413  -3.002
   2.157   1.689  -3.002
   1.935   1.922  -3.002
   1.669   2.103  -3.002
   1.370   2.222  -3.002
   1.052   2.275  -3.002
   0.730   2.257  -3.002
   1.370  -0.648  -3.002
   1.669  -0.529  -3.002
   1.935  -0.348  -3.002
   2.157  -0.115  -3.002
   2.323   0.161  -3.002
   2.426   0.467  -3.002
   2.186   0.787  -3.154
   2.144   1.101  -3.154
   2.023   1.394  -3.154
   1.830   1.646  -3.154
   1.578   1.839  -3.154
   1.285   1.960  -3.154
   0.971   2.002  -3.154
   0.971  -0.428  -3.154
   1.285  -0.386  -3.154
   1.578  -0.265  -3.154
   1.830  -0.072  -3.154
   2.023   0.180  -3.154
   2.144   0.473  -3.154
   1.896   0.787  -3.274
   1.840   1.103  -3.274
   1.679   1.381  -3.274
   1.433   1.588  -3.274
   1.132   1.698  -3.274
   0.810   1.698  -3.274
   0.810  -0.124  -3.274
   1.132  -0.124  -3.274
   1.433  -0.014  -3.274
   1.679   0.193  -3.274
   1.840   0.471  -3.274
   1.594   0.787  -3.361
   1.511   1.099  -3.361
   1.283   1.327  -3.361
   0.971   1.410  -3.361
   0.659   0.247  -3.361
   0.971   0.164  -3.361
   1.283   0.247  -3.361
   1.511   0.475  -3.361
   1.285   0.787  -3.413
   1.128   1.059  -3.413
   0.814   1.059  -3.413
   0.814   0.515  -3.413
   1.128   0.515  -3.413
   0.971   0.787  -3.431
   0.075  -3.062   2.104
   0.405  -3.080   2.104
   0.730  -3.026   2.104
   1.037  -2.904   2.104
   1.311  -2.719   2.104
   1.538  -2.479   2.104
  -0.756  -2.983   1.918
  -0.476  -3.157   1.918
  -0.168  -3.276   1.918
   0.157  -3.337   1.918
   0.487  -3.337   1.918
   0.812  -3.276   1.918
   1.120  -3.157   1.918
   1.400  -2.983   1.918
   1.644  -2.761   1.918
   1.843  -2.497   1.918
   1.991  -2.201   1.918
  -1.197  -2.901   1.703
  -0.961  -3.127   1.703
  -0.693  -3.313   1.703
  -0.398  -3.453   1.703
  -0.084  -3.543   1.703
   0.240  -3.583   1.703
   0.567  -3.570   1.703
   0.887  -3.504   1.703
   1.192  -3.388   1.703
   1.475  -3.225   1.703
   1.728  -3.019   1.703
   1.944  -2.774   1.703
   2.119  -2.498   1.703
   2.247  -2.198   1.703
   2.325  -1.881   1.703
   2.566  -1.555   1.463
  -1.635  -2.653   1.463
  -1.454  -2.926   1.463
  -1.235  -3.170   1.463
  -0.984  -3.380   1.463
  -0.704  -3.551   1.463
  -0.403  -3.679   1.463
  -0.086  -3.762   1.463
   0.240  -3.797   1.463
   0.567  -3.785   1.463
   0.890  -3.726   1.463
   1.200  -3.620   1.463
   1.491  -3.470   1.463
   1.757  -3.280   1.463
   1.993  -3.052   1.463
   2.193  -2.793   1.463
   2.354  -2.507   1.463
   2.471  -2.201   1.463
   2.542  -1.882   1.463
   2.752  -1.555   1.201
  -1.847  -2.651   1.201
  -1.681  -2.930   1.201
  -1.480  -3.185   1.201
  -1.247  -3.411   1.201
  -0.986  -3.603   1.201
  -0.701  -3.759   1.201
  -0.398  -3.876   1.201
  -0.082  -3.951   1.201
   0.241  -3.984   1.201
   0.565  -3.973   1.201
   0.885  -3.919   1.201
   1.195  -3.823   1.201
   1.490  -3.686   1.201
   1.763  -3.511   1.201
   2.011  -3.302   1.201
   2.229  -3.061   1.201
   2.413  -2.793   1.201
   2.559  -2.504   1.201
   2.666  -2.197   1.201
   2.730  -1.879   1.201
   2.908  -1.555   0.919
   2.887  -1.231   0.919
  -2.082  -2.507   0.919
  -1.944  -2.801   0.919
  -1.770  -3.075   0.919
  -1.563  -3.325   0.919
  -1.326  -3.547   0.919
  -1.064  -3.738   0.919
  -0.779  -3.895   0.919
  -0.477  -4.014   0.919
  -0.163  -4.095   0.919
   0.160  -4.136   0.919
   0.484  -4.136   0.919
   0.807  -4.095   0.919
   1.121  -4.014   0.919
   1.423  -3.895   0.919
   1.708  -3.738   0.919
   1.970  -3.547   0.919
   2.207  -3.325   0.919
   2.414  -3.075   0.919
   2.588  -2.801   0.919
   2.726  -2.507   0.919
   2.827  -2.198   0.919
   2.887  -1.879   0.919
   3.031  -1.555   0.622
   3.011  -1.228   0.622
  -2.077  -2.814   0.622
  -1.907  -3.094   0.622
  -1.706  -3.351   0.622
  -1.474  -3.583   0.622
  -1.217  -3.784   0.622
  -0.937  -3.954   0.622
  -0.639  -4.088   0.622
  -0.326  -4.185   0.622
  -0.005  -4.244   0.622
   0.322  -4.264   0.622
   0.649  -4.244   0.622
   0.970  -4.185   0.622
   1.283  -4.088   0.622
   1.581  -3.954   0.622
   1.861  -3.784   0.622
   2.118  -3.583   0.622
   2.350  -3.351   0.622
   2.551  -3.094   0.622
   2.721  -2.814   0.622
   2.855  -2.516   0.622
   2.952  -2.203   0.622
   3.011  -1.882   0.622
   3.120  -1.555   0.313
   3.101  -1.230   0.313
  -2.178  -2.811   0.313
  -2.016  -3.093   0.313
  -1.821  -3.354   0.313
  -1.598  -3.590   0.313
  -1.349  -3.799   0.313
  -1.077  -3.978   0.313
  -0.786  -4.124   0.313
  -0.480  -4.235   0.313
  -0.164  -4.311   0.313
   0.159  -4.348   0.313
   0.485  -4.348   0.313
   0.808  -4.311   0.313
   1.124  -4.235   0.313
   1.430  -4.124   0.313
   1.721  -3.978   0.313
   1.993  -3.799   0.313
   2.242  -3.590   0.313
   2.465  -3.354   0.313
   2.660  -3.093   0.313
   2.822  -2.811   0.313
   2.951  -2.512   0.313
   3.045  -2.200   0.313
   3.101  -1.880   0.313
   3.174  -1.555  -0.005
   3.155  -1.230  -0.005
  -2.161  -2.957  -0.005
  -1.985  -3.231  -0.005
  -1.779  -3.483  -0.005
  -1.546  -3.710  -0.005
  -1.288  -3.909  -0.005
  -1.009  -4.077  -0.005
  -0.713  -4.213  -0.005
  -0.403  -4.313  -0.005
  -0.084  -4.378  -0.005
   0.241  -4.406  -0.005
   0.566  -4.396  -0.005
   0.888  -4.350  -0.005
   1.203  -4.267  -0.005
   1.507  -4.149  -0.005
   1.795  -3.997  -0.005
   2.064  -3.813  -0.005
   2.310  -3.600  -0.005
   2.530  -3.360  -0.005
   2.721  -3.097  -0.005
   2.881  -2.813  -0.005
   3.008  -2.513  -0.005
   3.100  -2.201  -0.005
   3.155  -1.880  -0.005
   3.192  -1.555  -0.326
   3.174  -1.234  -0.326
  -2.108  -3.082  -0.326
  -1.922  -3.344  -0.326
  -1.707  -3.584  -0.326
  -1.467  -3.799  -0.326
  -1.205  -3.985  -0.326
  -0.923  -4.141  -0.326
  -0.626  -4.264  -0.326
  -0.317  -4.353  -0.326
   0.001  -4.407  -0.326
   0.322  -4.425  -0.326
   0.643  -4.407  -0.326
   0.961  -4.353  -0.326
   1.270  -4.264  -0.326
   1.567  -4.141  -0.326
   1.849  -3.985  -0.326
   2.111  -3.799  -0.326
   2.351  -3.584  -0.326
   2.566  -3.344  -0.326
   2.752  -3.082  -0.326
   2.908  -2.800  -0.326
   3.031  -2.503  -0.326
   3.120  -2.194  -0.326
   3.174  -1.876  -0.326
   3.174  -1.555  -0.647
   3.155  -1.230  -0.647
  -2.161  -2.957  -0.647
  -1.985  -3.231  -0.647
  -1.779  -3.483  -0.647
  -1.546  -3.710  -0.647
  -1.288  -3.909  -0.647
  -1.009  -4.077  -0.647
  -0.713  -4.213  -0.647
  -0.403  -4.313  -0.647
  -0.084  -4.378  -0.647
   0.241  -4.406  -0.647
   0.566  -4.396  -0.647
   0.888  -4.350  -0.647
   1.203  -4.267  -0.647
   1.507  -4.149  -0.647
   1.795  -3.997  -0.647
   2.064  -3.813  -0.647
   2.310  -3.600  -0.647
   2.530  -3.360  -0.647
   2.721  -3.097  -0.647
   2.881  -2.813  -0.647
   3.008  -2.513  -0.647
   3.100  -2.201  -0.647
   3.155  -1.880  -0.647
   3.120  -1.555  -0.965
   3.101  -1.230  -0.965
  -2.016  -3.093  -0.965
  -1.821  -3.354  -0.965
  -1.598  -3.590  -0.965
  -1.349  -3.799  -0.965
  -1.077  -3.978  -0.965
  -0.786  -4.124  -0.965
  -0.480  -4.235  -0.965
  -0.164  -4.311  -0.965
   0.159  -4.348  -0.965
   0.485  -4.348  -0.965
   0.808  -4.311  -0.965
   1.124  -4.235  -0.965
   1.430  -4.124  -0.965
   1.721  -3.978  -0.965
   1.993  -3.799  -0.965
   2.242  -3.590  -0.965
   2.465  -3.354  -0.965
   2.660  -3.093  -0.965
   2.822  -2.811  -0.965
   2.951  -2.512  -0.965
   3.045  -2.200  -0.965
   3.101  -1.880  -0.965
   3.031  -1.555  -1.274
   3.011  -1.228  -1.274
  -2.077  -2.814  -1.274
  -1.907  -3.094  -1.274
  -1.706  -3.351  -1.274
  -1.474  -3.583  -1.274
  -1.217  -3.784  -1.274
  -0.937  -3.954  -1.274
  -0.639  -4.088  -1.274
  -0.326  -4.185  -1.274
  -0.005  -4.244  -1.274
   0.322  -4.264  -1.274
   0.649  -4.244  -1.274
   0.970  -4.185  -1.274
   1.283  -4.088  -1.274
   1.581  -3.954  -1.274
   1.861  -3.784  -1.274
   2.118  -3.583  -1.274
   2.350  -3.351  -1.274
   2.551  -3.094  -1.274
   2.721  -2.814  -1.274
   2.855  -2.516  -1.274
   2.952  -2.203  -1.274
   3.011  -1.882  -1.274
   2.908  -1.555  -1.571
   2.887  -1.231  -1.571
  -1.944  -2.801  -1.571
  -1.770  -3.075  -1.571
  -1.563  -3.325  -1.571
  -1.326  -3.547  -1.571
  -1.064  -3.738  -1.571
  -0.779  -3.895  -1.571
  -0.477  -4.014  -1.571
  -0.163  -4.095  -1.571
   0.160  -4.136  -1.571
   0.484  -4.136  -1.571
   0.807  -4.095  -1.571
   1.121  -4.014  -1.571
   1.423  -3.895  -1.571
   1.708  -3.738  -1.571
   1.970  -3.547  -1.571
   2.207  -3.325  -1.571
   2.414  -3.075  -1.571
   2.588  -2.801  -1.571
   2.726  -2.507  -1.571
   2.827  -2.198  -1.571
   2.887  -1.879  -1.571
   2.752  -1.555  -1.853
   2.730  -1.231  -1.853
  -1.847  -2.651  -1.853
  -1.681  -2.930  -1.853
  -1.480  -3.185  -1.853
  -1.247  -3.411  -1.853
  -0.986  -3.603  -1.853
  -0.701  -3.759  -1.853
  -0.398  -3.876  -1.853
  -0.082  -3.951  -1.853
   0.241  -3.984  -1.853
   0.565  -3.973  -1.853
   0.885  -3.919  -1.853
   1.195  -3.823  -1.853
   1.490  -3.686  -1.853
   1.763  -3.511  -1.853
   2.011  -3.302  -1.853
   2.229  -3.061  -1.853
   2.413  -2.793  -1.853
   2.559  -2.504  -1.853
   2.666  -2.197  -1.853
   2.730  -1.879  -1.853
   2.566  -1.555  -2.115
   2.542  -1.228  -2.115
  -1.635  -2.653  -2.115
  -1.454  -2.926  -2.115
  -1.235  -3.170  -2.115
  -0.984  -3.380  -2.115
  -0.704  -3.551  -2.115
  -0.403  -3.679  -2.115
  -0.086  -3.762  -2.115
   0.240  -3.797  -2.115
   0.567  -3.785  -2.115
   0.890  -3.726  -2.115
   1.200  -3.620  -2.115
   1.491  -3.470  -2.115
   1.757  -3.280  -2.115
   1.993  -3.052  -2.115
   2.193  -2.793  -2.115
   2.354  -2.507  -2.115
   2.471  -2.201  -2.115
   2.542  -1.882  -2.115
   2.351  -1.555  -2.355
   2.325  -1.229  -2.355
  -1.545  -2.350  -2.355
  -1.393  -2.640  -2.355
  -1.197  -2.901  -2.355
  -0.961  -3.127  -2.355
  -0.693  -3.313  -2.355
  -0.398  -3.453  -2.355
  -0.084  -3.543  -2.355
   0.240  -3.583  -2.355
   0.567  -3.570  -2.355
   0.887  -3.504  -2.355
   1.192  -3.388  -2.355
   1.475  -3.225  -2.355
   1.728  -3.019  -2.355
   1.944  -2.774  -2.355
   2.119  -2.498  -2.355
   2.247  -2.198  -2.355
   2.325  -1.881  -2.355
   2.111  -1.555  -2.570
   2.081  -1.226  -2.570
  -1.347  -2.201  -2.570
  -1.199  -2.497  -2.570
  -1.000  -2.761  -2.570
  -0.756  -2.983  -2.570
  -0.476  -3.157  -2.570
  -0.168  -3.276  -2.570
   0.157  -3.337  -2.570
   0.487  -3.337  -2.570
   0.812  -3.276  -2.570
   1.120  -3.157  -2.570
   1.400  -2.983  -2.570
   1.644  -2.761  -2.570
   1.843  -2.497  -2.570
   1.991  -2.201  -2.570
   2.081  -1.884  -2.570
   1.849  -1.555  -2.756
   1.813  -1.227  -2.756
   1.708  -0.914  -2.756
  -1.125  -2.043  -2.756
  -0.986  -2.342  -2.756
  -0.787  -2.605  -2.756
  -0.535  -2.819  -2.756
  -0.243  -2.973  -2.756
   0.075  -3.062  -2.756
   0.405  -3.080  -2.756
   0.730  -3.026  -2.756
   1.037  -2.904  -2.756
   1.311  -2.719  -2.756
   1.538  -2.479  -2.756
   1.708  -2.196  -2.756
   1.813  -1.883  -2.756
   1.567  -1.555  -2.912
   1.525  -1.233  -2.912
   1.400  -0.932  -2.912
  -0.881  -1.877  -2.912
  -0.756  -2.178  -2.912
  -0.559  -2.436  -2.912
  -0.301  -2.633  -2.912
   0.000  -2.758  -2.912
   0.322  -2.800  -2.912
   0.644  -2.758  -2.912
   0.945  -2.633  -2.912
   1.203  -2.436  -2.912
   1.400  -2.178  -2.912
   1.525  -1.877  -2.912
   1.270  -1.555  -3.035
   1.213  -1.231  -3.035
   1.048  -0.946  -3.035
  -0.626  -1.555  -3.035
  -0.569  -1.879  -3.035
  -0.404  -2.164  -3.035
  -0.152  -2.376  -3.035
   0.157  -2.489  -3.035
   0.487  -2.489  -3.035
   0.796  -2.376  -3.035
   1.048  -2.164  -3.035
   1.213  -1.879  -3.035
   0.961  -1.555  -3.124
   0.875  -1.236  -3.124
   0.641  -1.002  -3.124
  -0.231  -1.236  -3.124
  -0.317  -1.555  -3.124
  -0.231  -1.874  -3.124
   0.003  -2.108  -3.124
   0.322  -2.194  -3.124
   0.641  -2.108  -3.124
   0.875  -1.874  -3.124
   0.643  -1.555  -3.178
   0.483  -1.277  -3.178
   0.161  -1.277  -3.178
   0.001  -1.555  -3.178
   0.161  -1.833  -3.178
   0.483  -1.833  -3.178
   0.322  -1.555  -3.196
  -2.901   0.333   1.757
  -2.970   0.018   1.757
  -2.970  -0.304   1.757
  -2.901  -0.619   1.757
  -3.117   0.488   1.575
  -3.205   0.178   1.575
  -3.235  -0.143   1.575
  -3.205  -0.464   1.575
  -3.117  -0.774   1.575
  -2.973  -1.062   1.575
  -2.779  -1.319   1.575
  -3.462   0.016   1.366
  -3.462  -0.302   1.366
  -3.411  -0.617   1.366
  -3.310  -0.919   1.366
  -3.162  -1.201   1.366
  -2.971  -1.456   1.366
  -2.741  -1.677   1.366
  -2.479  -1.858   1.366
  -3.672  -0.303   1.132
  -3.626  -0.619   1.132
  -3.534  -0.925   1.132
  -3.398  -1.214   1.132
  -3.222  -1.481   1.132
  -3.008  -1.719   1.132
  -2.763  -1.923   1.132
  -2.490  -2.090   1.132
  -3.812  -0.615   0.876
  -3.729  -0.921   0.876
  -3.605  -1.212   0.876
  -3.444  -1.485   0.876
  -3.247  -1.733   0.876
  -3.020  -1.953   0.876
  -2.765  -2.141   0.876
  -2.487  -2.294   0.876
  -2.191  -2.407   0.876
  -3.932  -0.770   0.601
  -3.835  -1.072   0.601
  -3.700  -1.358   0.601
  -3.530  -1.626   0.601
  -3.328  -1.870   0.601
  -3.097  -2.087   0.601
  -2.841  -2.273   0.601
  -2.563  -2.426   0.601
  -2.269  -2.542   0.601
  -3.960  -1.080   0.311
  -3.829  -1.371   0.311
  -3.664  -1.644   0.311
  -3.467  -1.896   0.311
  -3.242  -2.121   0.311
  -2.990  -2.318   0.311
  -2.717  -2.483   0.311
  -2.426  -2.614   0.311
  -3.928  -1.368   0.009
  -3.770  -1.643   0.009
  -3.580  -1.898   0.009
  -3.362  -2.129   0.009
  -3.119  -2.333   0.009
  -2.854  -2.507   0.009
  -2.570  -2.650   0.009
  -2.272  -2.758   0.009
  -3.740  -1.778  -0.300
  -3.539  -2.024  -0.300
  -3.311  -2.246  -0.300
  -3.060  -2.440  -0.300
  -2.787  -2.604  -0.300
  -2.498  -2.736  -0.300
  -3.678  -1.889  -0.614
  -3.469  -2.123  -0.614
  -3.235  -2.332  -0.614
  -2.979  -2.514  -0.614
  -2.704  -2.666  -0.614
  -2.414  -2.786  -0.614
  -3.311  -2.246  -0.927
  -3.060  -2.440  -0.927
  -2.787  -2.604  -0.927
  -2.498  -2.736  -0.927
  -2.196  -2.834  -0.927
  -3.119  -2.333  -1.237
  -2.854  -2.507  -1.237
  -2.570  -2.650  -1.237
  -2.272  -2.758  -1.237
  -2.990  -2.318  -1.539
  -2.717  -2.483  -1.539
  -2.426  -2.614  -1.539
  -2.121  -2.709  -1.539
  -2.841  -2.273  -1.829
  -2.563  -2.426  -1.829
  -2.269  -2.542  -1.829
  -1.962  -2.621  -1.829
  -2.487  -2.294  -2.104
  -2.191  -2.407  -2.104
  -1.883  -2.481  -2.104
  -2.490  -2.090  -2.360
  -2.196  -2.215  -2.360
  -1.887  -2.296  -2.360
  -1.569  -2.331  -2.360
  -1.885  -2.083  -2.594
  -1.569  -2.121  -2.594
  -1.650  -1.881  -2.803
  -1.328  -1.881  -2.803
  -1.090  -1.578  -2.985
  -0.791  -1.459  -2.985
  -3.451   0.508   1.416
  -3.792   0.678   1.248
  -3.715   0.329   1.248
  -4.085   0.856   1.047
  -4.052   0.501   1.047
  -3.954   0.158   1.047
  -3.795  -0.161   1.047
  -4.337   1.032   0.815
  -4.337   0.680   0.815
  -4.280   0.331   0.815
  -4.169  -0.003   0.815
  -4.005  -0.316   0.815
  -4.569   1.033   0.556
  -4.569   0.679   0.556
  -4.518   0.329   0.556
  -4.416  -0.010   0.556
  -4.266  -0.330   0.556
  -4.070  -0.625   0.556
  -4.724   1.379   0.272
  -4.771   1.031   0.272
  -4.771   0.681   0.272
  -4.724   0.333   0.272
  -4.099  -0.905   0.272
  -4.857   1.551  -0.032
  -4.923   1.206  -0.032
  -4.945   0.856  -0.032
  -4.993   1.556  -0.353
  -4.992   1.890  -0.687
  -4.990   2.055  -1.030
  -4.777   2.505  -1.377
  -4.945   2.201  -1.377
  -4.422   2.939  -1.724
  -4.644   2.667  -1.724
  -4.834   2.371  -1.724
  -1.285   3.751  -2.067
  -1.627   3.832  -2.067
  -3.957   3.280  -2.067
  -4.226   3.054  -2.067
  -4.467   2.799  -2.067
  -4.677   2.517  -2.067
  -1.799   3.761  -2.401
  -2.152   3.782  -2.401
  -2.505   3.761  -2.401
  -2.852   3.697  -2.401
  -3.190   3.592  -2.401
  -3.512   3.447  -2.401
  -3.814   3.264  -2.401
  -4.092   3.046  -2.401
  -4.342   2.796  -2.401
  -4.560   2.518  -2.401
  -2.327   3.643  -2.722
  -2.675   3.600  -2.722
  -3.015   3.512  -2.722
  -3.341   3.383  -2.722
  -3.649   3.214  -2.722
  -3.932   3.008  -2.722
  -4.188   2.768  -2.722
  -4.412   2.498  -2.722
  -2.327  -1.931  -2.722
  -1.977  -1.931  -2.722
  -2.589   3.444  -3.026
  -2.930   3.363  -3.026
  -3.257   3.237  -3.026
  -3.564   3.068  -3.026
  -3.847   2.860  -3.026
  -4.099   2.617  -3.026
  -4.316   2.342  -3.026
  -2.240  -1.767  -3.026
  -1.889  -1.756  -3.026
  -1.544  -1.697  -3.026
  -1.209  -1.593  -3.026
  -0.891  -1.446  -3.026
  -2.935   3.150  -3.310
  -3.260   3.011  -3.310
  -3.562   2.827  -3.310
  -3.834   2.601  -3.310
  -4.070   2.337  -3.310
  -2.241  -1.566  -3.310
  -1.887  -1.553  -3.310
  -1.539  -1.489  -3.310
  -1.204  -1.375  -3.310
  -0.889  -1.213  -3.310
  -2.929   2.906  -3.569
  -3.248   2.754  -3.569
  -3.538   2.554  -3.569
  -3.793   2.310  -3.569
  -4.005   2.028  -3.569
  -2.240  -1.334  -3.569
  -1.888  -1.320  -3.569
  -1.542  -1.249  -3.569
  -1.212  -1.124  -3.569
  -3.014   2.586  -3.801
  -3.317   2.398  -3.801
  -3.580   2.158  -3.801
  -3.795   1.874  -3.801
  -2.330  -1.069  -3.801
  -1.974  -1.069  -3.801
  -1.623  -1.003  -3.801
  -3.349   1.990  -4.002
  -3.565   1.706  -4.002
  -2.419  -0.772  -4.002
  -2.063  -0.791  -4.002
  -1.711  -0.733  -4.002
  -3.317   1.529  -4.170
  -2.500  -0.443  -4.170
  -2.152  -0.489  -4.170
  -3.114   1.206  -4.303
  -3.176   0.856  -4.303
  -2.664  -0.031  -4.303
  -3.724   1.552   1.460
  -3.660   1.260   1.460
  -3.534   0.989   1.460
  -3.861   2.288   1.292
  -3.942   2.000   1.292
  -3.970   1.702   1.292
  -3.942   1.404   1.292
  -3.861   1.116   1.292
  -3.903   2.685   1.097
  -4.040   2.423   1.097
  -4.134   2.142   1.097
  -4.182   1.850   1.097
  -4.182   1.554   1.097
  -4.134   1.262   1.097
  -4.040   0.981   1.097
  -3.760   3.165   0.880
  -3.958   2.944   0.880
  -4.122   2.697   0.880
  -4.248   2.428   0.880
  -4.333   2.144   0.880
  -4.376   1.850   0.880
  -4.376   1.554   0.880
  -4.333   1.260   0.880
  -3.770   3.383   0.642
  -3.982   3.179   0.642
  -4.164   2.948   0.642
  -4.314   2.695   0.642
  -4.429   2.424   0.642
  -4.506   2.141   0.642
  -4.546   1.849   0.642
  -4.546   1.555   0.642
  -4.506   1.264   0.642
  -3.604   3.680   0.387
  -3.842   3.507   0.387
  -4.057   3.306   0.387
  -4.244   3.079   0.387
  -4.402   2.831   0.387
  -4.527   2.564   0.387
  -4.618   2.285   0.387
  -4.673   1.996   0.387
  -4.692   1.702   0.387
  -4.673   1.408   0.387
  -3.219   3.997   0.118
  -3.489   3.875   0.118
  -3.743   3.722   0.118
  -3.976   3.539   0.118
  -4.186   3.329   0.118
  -4.369   3.096   0.118
  -4.522   2.842   0.118
  -4.644   2.572   0.118
  -4.732   2.289   0.118
  -4.785   1.998   0.118
  -4.803   1.702   0.118
  -3.076   4.130  -0.162
  -3.353   4.030  -0.162
  -3.616   3.897  -0.162
  -3.863   3.735  -0.162
  -4.088   3.546  -0.162
  -4.291   3.331  -0.162
  -4.467   3.095  -0.162
  -4.614   2.840  -0.162
  -4.731   2.569  -0.162
  -4.815   2.287  -0.162
  -4.867   1.996  -0.162
  -4.884   1.702  -0.162
  -2.717   4.259  -0.450
  -3.006   4.201  -0.450
  -3.286   4.110  -0.450
  -3.555   3.987  -0.450
  -3.807   3.835  -0.450
  -4.041   3.655  -0.450
  -4.252   3.449  -0.450
  -4.439   3.221  -0.450
  -4.599   2.972  -0.450
  -4.729   2.708  -0.450
  -4.828   2.430  -0.450
  -4.895   2.143  -0.450
  -2.349   4.302  -0.741
  -2.640   4.286  -0.741
  -2.928   4.237  -0.741
  -3.208   4.156  -0.741
  -3.477   4.045  -0.741
  -3.732   3.903  -0.741
  -3.970   3.735  -0.741
  -4.187   3.540  -0.741
  -4.382   3.323  -0.741
  -4.550   3.085  -0.741
  -4.692   2.830  -0.741
  -4.803   2.561  -0.741
  -4.884   2.281  -0.741
  -2.423   4.285  -1.032
  -2.717   4.259  -1.032
  -3.006   4.201  -1.032
  -3.286   4.110  -1.032
  -3.555   3.987  -1.032
  -3.807   3.835  -1.032
  -4.041   3.655  -1.032
  -4.252   3.449  -1.032
  -4.439   3.221  -1.032
  -4.599   2.972  -1.032
  -4.729   2.708  -1.032
  -4.828   2.430  -1.032
  -2.202   4.233  -1.320
  -2.496   4.233  -1.320
  -2.789   4.198  -1.320
  -3.076   4.130  -1.320
  -3.353   4.030  -1.320
  -3.616   3.897  -1.320
  -3.863   3.735  -1.320
  -4.088   3.546  -1.320
  -4.291   3.331  -1.320
  -4.467   3.095  -1.320
  -4.614   2.840  -1.320
  -1.762   4.085  -1.600
  -2.053   4.138  -1.600
  -2.349   4.156  -1.600
  -2.645   4.138  -1.600
  -2.936   4.085  -1.600