 $system timlim=999888777
         mwords=100 $end
 $contrl exetyp=run
         runtyp=energy scftyp=rhf
         icharg=-1 mult=1 units=angs coord=unique
         maxit=50 ispher=1 qmttol=1d-6 icut=12 itol=22 $end
 $scf    dirscf=.t. diis=.t. soscf=.f.
         fdiff=.f. conv=1d-6
         npreo(1)=0,-1,1,9999 $end
 $elpot  iepot=1 where=points $end
 $basis  gbasis=n311 ngauss=6
         ndfunc=1 npfunc=1 diffsp=.t. diffs=.t. $end
 $DATA
TS1a_hfd_irc200_all_revmov.pdb
C1
P     15.0    -0.04800  -0.02800  -0.00900 
O      8.0    -0.05800  -0.26700   1.54100 
O      8.0     0.99600   0.75600  -0.65700 
F      9.0     0.30200  -1.56000  -0.33200 
O      8.0    -1.49100  -0.14000  -0.61600 
C      6.0    -2.15200   0.85600  -1.37700 
H      1.0    -2.38900   1.68900  -0.73900 
H      1.0    -1.51300   1.18400  -2.18900 
H      1.0    -3.03000   0.36900  -1.78400 
C      6.0     0.43800   0.62800   2.52300 
H      1.0     0.44500   0.06100   3.44700 
H      1.0     1.45000   0.92200   2.27400 
H      1.0    -0.19800   1.49500   2.56400 
O      8.0    -0.99600   2.18700   0.75100 
H      1.0    -0.38600   2.81200   0.38100 
 $END
 $POINTS
ANGS 3030
  -2.215  -2.063   1.423
  -2.114  -2.359   1.081
   2.864  -1.133   1.081
   2.975  -1.128   0.725
   3.083  -0.770   0.725
   3.148  -0.402   0.725
   3.146  -0.771   0.360
  -0.237  -1.101  -3.124
   0.787  -0.729  -3.124
  -0.048  -0.762  -3.226
   0.319  -0.664  -3.226
   0.588  -0.395  -3.226
  -2.103  -1.049   3.287
  -1.967  -1.338   3.287
  -1.791  -1.605   3.287
  -1.577  -1.843   3.287
  -1.332  -2.047   3.287
  -1.059  -2.214   3.287
  -0.765  -2.339   3.287
  -0.456  -2.420   3.287
  -2.381  -0.739   3.031
  -2.298  -1.045   3.031
  -2.174  -1.336   3.031
  -2.013  -1.609   3.031
  -1.816  -1.857   3.031
  -1.589  -2.077   3.031
  -1.334  -2.265   3.031
  -1.056  -2.418   3.031
  -0.760  -2.531   3.031
  -0.452  -2.605   3.031
  -0.137  -2.637   3.031
   0.179  -2.626   3.031
   0.492  -2.573   3.031
  -2.581  -0.267   2.756
  -2.561  -0.583   2.756
  -2.501  -0.894   2.756
  -2.404  -1.196   2.756
  -2.269  -1.482   2.756
  -2.099  -1.750   2.756
  -1.897  -1.994   2.756
  -1.666  -2.211   2.756
  -1.410  -2.397   2.756
  -1.132  -2.550   2.756
  -0.838  -2.666   2.756
  -0.531  -2.745   2.756
  -0.216  -2.785   2.756
   0.100  -2.785   2.756
   0.415  -2.745   2.756
   0.722  -2.666   2.756
   1.016  -2.550   2.756
   1.294  -2.397   2.756
  -2.682   0.052   2.466
  -2.701  -0.267   2.466
  -2.682  -0.586   2.466
  -2.624  -0.899   2.466
  -2.529  -1.204   2.466
  -2.398  -1.495   2.466
  -2.233  -1.768   2.466
  -2.036  -2.020   2.466
  -1.811  -2.245   2.466
  -1.559  -2.442   2.466
  -1.286  -2.607   2.466
  -0.995  -2.738   2.466
  -0.690  -2.833   2.466
  -0.377  -2.891   2.466
  -0.058  -2.910   2.466
   0.261  -2.891   2.466
   0.574  -2.833   2.466
   0.879  -2.738   2.466
   1.170  -2.607   2.466
   1.443  -2.442   2.466
   1.695  -2.245   2.466
  -2.714   0.363   2.164
  -2.769   0.050   2.164
  -2.788  -0.267   2.164
  -2.769  -0.584   2.164
  -2.714  -0.897   2.164
  -2.623  -1.201   2.164
  -2.497  -1.492   2.164
  -2.339  -1.767   2.164
  -2.149  -2.022   2.164
  -1.931  -2.253   2.164
  -1.688  -2.457   2.164
  -1.423  -2.631   2.164
  -1.139  -2.774   2.164
  -0.841  -2.882   2.164
  -0.532  -2.955   2.164
  -0.217  -2.992   2.164
   0.101  -2.992   2.164
   1.307  -2.631   2.164
   1.572  -2.457   2.164
   1.815  -2.253   2.164
   2.033  -2.022   2.164
  -2.800   0.207   1.855
  -2.836  -0.108   1.855
  -2.836  -0.426   1.855
  -2.800  -0.741   1.855
  -2.728  -1.051   1.855
  -2.621  -1.350   1.855
  -2.481  -1.635   1.855
  -2.309  -1.902   1.855
  -2.108  -2.148   1.855
  -1.880  -2.370   1.855
  -1.629  -2.564   1.855
  -1.356  -2.728   1.855
  -1.067  -2.860   1.855
  -2.429  -1.757   1.541
  -2.247  -2.013   1.541
  -2.038  -2.247   1.541
  -1.804  -2.456   1.541
   3.519   0.756   0.558
   3.499   1.072   0.558
   3.439   1.383   0.558
   3.342   1.685   0.558
   3.207   1.971   0.558
   3.037   2.239   0.558
   2.835   2.483   0.558
   2.604   2.700   0.558
   2.348   2.886   0.558
   3.207  -0.459   0.558
   3.342  -0.173   0.558
   3.439   0.129   0.558
   3.499   0.440   0.558
   3.639   0.756   0.268
   3.620   1.075   0.268
   3.562   1.388   0.268
   3.467   1.693   0.268
   3.336   1.984   0.268
   3.171   2.257   0.268
   2.974   2.509   0.268
   2.749   2.734   0.268
   2.497   2.931   0.268
   2.224   3.096   0.268
   3.171  -0.745   0.268
   3.336  -0.472   0.268
   3.467  -0.181   0.268
   3.562   0.124   0.268
   3.620   0.437   0.268
   3.726   0.756  -0.034
   3.707   1.073  -0.034
   3.652   1.386  -0.034
   3.561   1.690  -0.034
   3.435   1.981  -0.034
   3.277   2.256  -0.034
   3.087   2.511  -0.034
   2.869   2.742  -0.034
   2.626   2.946  -0.034
   2.361   3.120  -0.034
   3.277  -0.744  -0.034
   3.435  -0.469  -0.034
   3.561  -0.178  -0.034
   3.652   0.126  -0.034
   3.707   0.439  -0.034
   3.778   0.756  -0.343
   3.760   1.073  -0.343
   3.706   1.386  -0.343
   3.617   1.691  -0.343
   3.493   1.984  -0.343
   3.337   2.260  -0.343
   3.150   2.517  -0.343
   2.935   2.751  -0.343
   2.695   2.959  -0.343
   2.433   3.139  -0.343
   2.152   3.287  -0.343
   3.150  -1.005  -0.343
   3.337  -0.748  -0.343
   3.493  -0.472  -0.343
   3.617  -0.179  -0.343
   3.706   0.126  -0.343
   3.760   0.439  -0.343
   3.796   0.756  -0.657
   3.778   1.070  -0.657
   3.726   1.379  -0.657
   3.639   1.681  -0.657
   3.519   1.971  -0.657
   3.367   2.246  -0.657
   3.185   2.502  -0.657
   2.976   2.736  -0.657
   2.742   2.945  -0.657
   2.486   3.127  -0.657
   2.211   3.279  -0.657
   3.185  -0.990  -0.657
   3.367  -0.734  -0.657
   3.519  -0.459  -0.657
   3.639  -0.169  -0.657
   3.726   0.133  -0.657
   3.778   0.442  -0.657
   3.778   0.756  -0.970
   3.760   1.073  -0.970
   3.706   1.386  -0.970
   3.617   1.691  -0.970
   3.493   1.984  -0.970
   3.337   2.260  -0.970
   3.150   2.517  -0.970
   2.935   2.751  -0.970
   2.695   2.959  -0.970
   2.433   3.139  -0.970
   2.152   3.287  -0.970
   1.856   3.402  -0.970
   3.150  -1.005  -0.970
   3.337  -0.748  -0.970
   3.493  -0.472  -0.970
   3.617  -0.179  -0.970
   3.706   0.126  -0.970
   3.760   0.439  -0.970
   3.726   0.756  -1.280
   3.707   1.073  -1.280
   3.652   1.386  -1.280
   3.561   1.690  -1.280
   3.435   1.981  -1.280
   3.277   2.256  -1.280
   3.087   2.511  -1.280
   2.869   2.742  -1.280
   2.626   2.946  -1.280
   2.361   3.120  -1.280
   2.077   3.263  -1.280
   1.779   3.371  -1.280
   3.087  -0.999  -1.280
   3.277  -0.744  -1.280
   3.435  -0.469  -1.280
   3.561  -0.178  -1.280
   3.652   0.126  -1.280
   3.707   0.439  -1.280
   3.639   0.756  -1.582
   3.620   1.075  -1.582
   3.562   1.388  -1.582
   3.467   1.693  -1.582
   3.336   1.984  -1.582
   3.171   2.257  -1.582
   2.974   2.509  -1.582
   2.749   2.734  -1.582
   2.497   2.931  -1.582
   2.224   3.096  -1.582
   1.933   3.227  -1.582
   1.628   3.322  -1.582
   1.315   3.380  -1.582
   2.974  -0.997  -1.582
   3.171  -0.745  -1.582
   3.336  -0.472  -1.582
   3.467  -0.181  -1.582
   3.562   0.124  -1.582
   3.620   0.437  -1.582
   3.519   0.756  -1.872
   3.499   1.072  -1.872
   3.439   1.383  -1.872
   3.342   1.685  -1.872
   3.207   1.971  -1.872
   3.037   2.239  -1.872
   2.835   2.483  -1.872
   2.604   2.700  -1.872
   2.348   2.886  -1.872
   2.070   3.039  -1.872
   1.776   3.155  -1.872
   1.469   3.234  -1.872
   1.154   3.274  -1.872
   0.838   3.274  -1.872
   2.835  -0.971  -1.872
   3.037  -0.727  -1.872
   3.207  -0.459  -1.872
   3.342  -0.173  -1.872
   3.439   0.129  -1.872
   3.499   0.440  -1.872
   3.367   0.756  -2.147
   3.346   1.072  -2.147
   3.283   1.382  -2.147
   3.179   1.682  -2.147
   3.036   1.964  -2.147
   2.857   2.225  -2.147
   2.644   2.460  -2.147
   2.402   2.665  -2.147
   2.135   2.835  -2.147
   1.848   2.968  -2.147
   1.546   3.062  -2.147
   1.233   3.115  -2.147
   0.917   3.126  -2.147
   0.602   3.094  -2.147
   2.644  -0.948  -2.147
   2.857  -0.713  -2.147
   3.036  -0.452  -2.147
   3.179  -0.170  -2.147
   3.283   0.130  -2.147
   3.346   0.440  -2.147
   3.185   0.756  -2.403
   3.162   1.075  -2.403
   3.092   1.387  -2.403
   2.978   1.685  -2.403
   2.822   1.964  -2.403
   2.626   2.217  -2.403
   2.396   2.439  -2.403
   2.136   2.625  -2.403
   1.852   2.771  -2.403
   1.550   2.874  -2.403
   1.235   2.932  -2.403
   0.916   2.944  -2.403
   0.598   2.909  -2.403
   2.396  -0.927  -2.403
   2.626  -0.705  -2.403
   2.822  -0.452  -2.403
   2.978  -0.173  -2.403
   3.092   0.125  -2.403
   3.162   0.437  -2.403
   2.976   0.756  -2.637
   2.950   1.074  -2.637
   2.874   1.383  -2.637
   2.749   1.676  -2.637
   2.579   1.945  -2.637
   2.368   2.184  -2.637
   2.121   2.385  -2.637
   1.845   2.545  -2.637
   1.547   2.658  -2.637
   1.235   2.721  -2.637
   0.916   2.734  -2.637
   0.600   2.696  -2.637
   2.121  -0.873  -2.637
   2.368  -0.672  -2.637
   2.579  -0.433  -2.637
   2.749  -0.164  -2.637
   2.874   0.129  -2.637
   2.950   0.438  -2.637
   2.742   0.756  -2.846
   2.712   1.077  -2.846
   2.624   1.387  -2.846
   2.480   1.675  -2.846
   2.286   1.932  -2.846
   2.048   2.149  -2.846
   1.774   2.319  -2.846
   1.474   2.435  -2.846
   1.157   2.494  -2.846
   0.835   2.494  -2.846
   1.774  -0.807  -2.846
   2.048  -0.637  -2.846
   2.286  -0.420  -2.846
   2.480  -0.163  -2.846
   2.624   0.125  -2.846
   2.712   0.435  -2.846
   2.486   0.756  -3.028
   2.451   1.076  -3.028
   2.348   1.382  -3.028
   2.182   1.658  -3.028
   1.960   1.891  -3.028
   1.694   2.072  -3.028
   1.395   2.191  -3.028
   1.077   2.244  -3.028
   0.755   2.226  -3.028
   1.395  -0.679  -3.028
   1.694  -0.560  -3.028
   1.960  -0.379  -3.028
   2.182  -0.146  -3.028
   2.348   0.130  -3.028
   2.451   0.436  -3.028
   2.211   0.756  -3.180
   2.169   1.070  -3.180
   2.048   1.363  -3.180
   1.855   1.615  -3.180
   1.603   1.808  -3.180
   1.310   1.929  -3.180
   0.996   1.971  -3.180
   0.996  -0.459  -3.180
   1.310  -0.417  -3.180
   1.603  -0.296  -3.180
   1.855  -0.103  -3.180
   2.048   0.149  -3.180
   2.169   0.442  -3.180
   1.921   0.756  -3.300
   1.865   1.072  -3.300
   1.704   1.350  -3.300
   1.458   1.557  -3.300
   1.157   1.667  -3.300
   0.835   1.667  -3.300
   0.534  -0.045  -3.300
   0.835  -0.155  -3.300
   1.157  -0.155  -3.300
   1.458  -0.045  -3.300
   1.704   0.162  -3.300
   1.865   0.440  -3.300
   1.619   0.756  -3.387
   1.536   1.068  -3.387
   1.308   1.296  -3.387
   0.996   1.379  -3.387
   0.684   0.216  -3.387
   0.996   0.133  -3.387
   1.308   0.216  -3.387
   1.536   0.444  -3.387
   1.310   0.756  -3.439
   1.153   1.028  -3.439
   0.839   1.028  -3.439
   0.839   0.484  -3.439
   1.153   0.484  -3.439
   0.996   0.756  -3.457
   0.055  -3.067   2.098
   0.385  -3.085   2.098
   0.710  -3.031   2.098
   1.017  -2.909   2.098
   1.291  -2.724   2.098
  -0.776  -2.988   1.912
  -0.496  -3.162   1.912
  -0.188  -3.281   1.912
   0.137  -3.342   1.912
   0.467  -3.342   1.912
   0.792  -3.281   1.912
   1.100  -3.162   1.912
   1.380  -2.988   1.912
   1.624  -2.766   1.912
   1.823  -2.502   1.912
   1.971  -2.206   1.912
  -1.217  -2.906   1.697
  -0.981  -3.132   1.697
  -0.713  -3.318   1.697
  -0.418  -3.458   1.697
  -0.104  -3.548   1.697
   0.220  -3.588   1.697
   0.547  -3.575   1.697
   0.867  -3.509   1.697
   1.172  -3.393   1.697
   1.455  -3.230   1.697
   1.708  -3.024   1.697
   1.924  -2.779   1.697
   2.099  -2.503   1.697
   2.227  -2.203   1.697
   2.305  -1.886   1.697
   2.546  -1.560   1.457
  -1.655  -2.658   1.457
  -1.474  -2.931   1.457
  -1.255  -3.175   1.457
  -1.004  -3.385   1.457
  -0.724  -3.556   1.457
  -0.423  -3.684   1.457
  -0.106  -3.767   1.457
   0.220  -3.802   1.457
   0.547  -3.790   1.457
   0.870  -3.731   1.457
   1.180  -3.625   1.457
   1.471  -3.475   1.457
   1.737  -3.285   1.457
   1.973  -3.057   1.457
   2.173  -2.798   1.457
   2.334  -2.512   1.457
   2.451  -2.206   1.457
   2.522  -1.887   1.457
   2.732  -1.560   1.195
  -1.867  -2.656   1.195
  -1.701  -2.935   1.195
  -1.500  -3.190   1.195
  -1.267  -3.416   1.195
  -1.006  -3.608   1.195
  -0.721  -3.764   1.195
  -0.418  -3.881   1.195
  -0.102  -3.956   1.195
   0.221  -3.989   1.195
   0.545  -3.978   1.195
   0.865  -3.924   1.195
   1.175  -3.828   1.195
   1.470  -3.691   1.195
   1.743  -3.516   1.195
   1.991  -3.307   1.195
   2.209  -3.066   1.195
   2.393  -2.798   1.195
   2.539  -2.509   1.195
   2.646  -2.202   1.195
   2.710  -1.884   1.195
   2.888  -1.560   0.913
  -2.102  -2.512   0.913
  -1.964  -2.806   0.913
  -1.790  -3.080   0.913
  -1.583  -3.330   0.913
  -1.346  -3.552   0.913
  -1.084  -3.743   0.913
  -0.799  -3.900   0.913
  -0.497  -4.019   0.913
  -0.183  -4.100   0.913
   0.140  -4.141   0.913
   0.464  -4.141   0.913
   0.787  -4.100   0.913
   1.101  -4.019   0.913
   1.403  -3.900   0.913
   1.688  -3.743   0.913
   1.950  -3.552   0.913
   2.187  -3.330   0.913
   2.394  -3.080   0.913
   2.568  -2.806   0.913
   2.706  -2.512   0.913
   2.807  -2.203   0.913
   2.867  -1.884   0.913
   3.011  -1.560   0.616
   2.991  -1.233   0.616
  -2.097  -2.819   0.616
  -1.927  -3.099   0.616
  -1.726  -3.356   0.616
  -1.494  -3.588   0.616
  -1.237  -3.789   0.616
  -0.957  -3.959   0.616
  -0.659  -4.093   0.616
  -0.346  -4.190   0.616
  -0.025  -4.249   0.616
   0.302  -4.269   0.616
   0.629  -4.249   0.616
   0.950  -4.190   0.616
   1.263  -4.093   0.616
   1.561  -3.959   0.616
   1.841  -3.789   0.616
   2.098  -3.588   0.616
   2.330  -3.356   0.616
   2.531  -3.099   0.616
   2.701  -2.819   0.616
   2.835  -2.521   0.616
   2.932  -2.208   0.616
   2.991  -1.887   0.616
   3.100  -1.560   0.307
   3.081  -1.235   0.307
  -2.198  -2.816   0.307
  -2.036  -3.098   0.307
  -1.841  -3.359   0.307
  -1.618  -3.595   0.307
  -1.369  -3.804   0.307
  -1.097  -3.983   0.307
  -0.806  -4.129   0.307
  -0.500  -4.240   0.307
  -0.184  -4.316   0.307
   0.139  -4.353   0.307
   0.465  -4.353   0.307
   0.788  -4.316   0.307
   1.104  -4.240   0.307
   1.410  -4.129   0.307
   1.701  -3.983   0.307
   1.973  -3.804   0.307
   2.222  -3.595   0.307
   2.445  -3.359   0.307
   2.640  -3.098   0.307
   2.802  -2.816   0.307
   2.931  -2.517   0.307
   3.025  -2.205   0.307
   3.081  -1.885   0.307
   3.154  -1.560  -0.011
   3.135  -1.235  -0.011
  -2.181  -2.962  -0.011
  -2.005  -3.236  -0.011
  -1.799  -3.488  -0.011
  -1.566  -3.715  -0.011
  -1.308  -3.914  -0.011
  -1.029  -4.082  -0.011
  -0.733  -4.218  -0.011
  -0.423  -4.318  -0.011
  -0.104  -4.383  -0.011
   0.221  -4.411  -0.011
   0.546  -4.401  -0.011
   0.868  -4.355  -0.011
   1.183  -4.272  -0.011
   1.487  -4.154  -0.011
   1.775  -4.002  -0.011
   2.044  -3.818  -0.011
   2.290  -3.605  -0.011
   2.510  -3.365  -0.011
   2.701  -3.102  -0.011
   2.861  -2.818  -0.011
   2.988  -2.518  -0.011
   3.080  -2.206  -0.011
   3.135  -1.885  -0.011
   3.172  -1.560  -0.332
   3.154  -1.239  -0.332
  -2.128  -3.087  -0.332
  -1.942  -3.349  -0.332
  -1.727  -3.589  -0.332
  -1.487  -3.804  -0.332
  -1.225  -3.990  -0.332
  -0.943  -4.146  -0.332
  -0.646  -4.269  -0.332
  -0.337  -4.358  -0.332
  -0.019  -4.412  -0.332
   0.302  -4.430  -0.332
   0.623  -4.412  -0.332
   0.941  -4.358  -0.332
   1.250  -4.269  -0.332
   1.547  -4.146  -0.332
   1.829  -3.990  -0.332
   2.091  -3.804  -0.332
   2.331  -3.589  -0.332
   2.546  -3.349  -0.332
   2.732  -3.087  -0.332
   2.888  -2.805  -0.332
   3.011  -2.508  -0.332
   3.100  -2.199  -0.332
   3.154  -1.881  -0.332
   3.154  -1.560  -0.653
   3.135  -1.235  -0.653
  -2.181  -2.962  -0.653
  -2.005  -3.236  -0.653
  -1.799  -3.488  -0.653
  -1.566  -3.715  -0.653
  -1.308  -3.914  -0.653
  -1.029  -4.082  -0.653
  -0.733  -4.218  -0.653
  -0.423  -4.318  -0.653
  -0.104  -4.383  -0.653
   0.221  -4.411  -0.653
   0.546  -4.401  -0.653
   0.868  -4.355  -0.653
   1.183  -4.272  -0.653
   1.487  -4.154  -0.653
   1.775  -4.002  -0.653
   2.044  -3.818  -0.653
   2.290  -3.605  -0.653
   2.510  -3.365  -0.653
   2.701  -3.102  -0.653
   2.861  -2.818  -0.653
   2.988  -2.518  -0.653
   3.080  -2.206  -0.653
   3.135  -1.885  -0.653
   3.100  -1.560  -0.971
   3.081  -1.235  -0.971
  -2.036  -3.098  -0.971
  -1.841  -3.359  -0.971
  -1.618  -3.595  -0.971
  -1.369  -3.804  -0.971
  -1.097  -3.983  -0.971
  -0.806  -4.129  -0.971
  -0.500  -4.240  -0.971
  -0.184  -4.316  -0.971
   0.139  -4.353  -0.971
   0.465  -4.353  -0.971
   0.788  -4.316  -0.971
   1.104  -4.240  -0.971
   1.410  -4.129  -0.971
   1.701  -3.983  -0.971
   1.973  -3.804  -0.971
   2.222  -3.595  -0.971
   2.445  -3.359  -0.971
   2.640  -3.098  -0.971
   2.802  -2.816  -0.971
   2.931  -2.517  -0.971
   3.025  -2.205  -0.971
   3.081  -1.885  -0.971
   3.011  -1.560  -1.280
   2.991  -1.233  -1.280
  -2.097  -2.819  -1.280
  -1.927  -3.099  -1.280
  -1.726  -3.356  -1.280
  -1.494  -3.588  -1.280
  -1.237  -3.789  -1.280
  -0.957  -3.959  -1.280
  -0.659  -4.093  -1.280
  -0.346  -4.190  -1.280
  -0.025  -4.249  -1.280
   0.302  -4.269  -1.280
   0.629  -4.249  -1.280
   0.950  -4.190  -1.280
   1.263  -4.093  -1.280
   1.561  -3.959  -1.280
   1.841  -3.789  -1.280
   2.098  -3.588  -1.280
   2.330  -3.356  -1.280
   2.531  -3.099  -1.280
   2.701  -2.819  -1.280
   2.835  -2.521  -1.280
   2.932  -2.208  -1.280
   2.991  -1.887  -1.280
   2.888  -1.560  -1.577
   2.867  -1.236  -1.577
  -1.964  -2.806  -1.577
  -1.790  -3.080  -1.577
  -1.583  -3.330  -1.577
  -1.346  -3.552  -1.577
  -1.084  -3.743  -1.577
  -0.799  -3.900  -1.577
  -0.497  -4.019  -1.577
  -0.183  -4.100  -1.577
   0.140  -4.141  -1.577
   0.464  -4.141  -1.577
   0.787  -4.100  -1.577
   1.101  -4.019  -1.577
   1.403  -3.900  -1.577
   1.688  -3.743  -1.577
   1.950  -3.552  -1.577
   2.187  -3.330  -1.577
   2.394  -3.080  -1.577
   2.568  -2.806  -1.577
   2.706  -2.512  -1.577
   2.807  -2.203  -1.577
   2.867  -1.884  -1.577
   2.732  -1.560  -1.859
   2.710  -1.236  -1.859
  -1.867  -2.656  -1.859
  -1.701  -2.935  -1.859
  -1.500  -3.190  -1.859
  -1.267  -3.416  -1.859
  -1.006  -3.608  -1.859
  -0.721  -3.764  -1.859
  -0.418  -3.881  -1.859
  -0.102  -3.956  -1.859
   0.221  -3.989  -1.859
   0.545  -3.978  -1.859
   0.865  -3.924  -1.859
   1.175  -3.828  -1.859
   1.470  -3.691  -1.859
   1.743  -3.516  -1.859
   1.991  -3.307  -1.859
   2.209  -3.066  -1.859
   2.393  -2.798  -1.859
   2.539  -2.509  -1.859
   2.646  -2.202  -1.859
   2.710  -1.884  -1.859
   2.546  -1.560  -2.121
   2.522  -1.233  -2.121
  -1.655  -2.658  -2.121
  -1.474  -2.931  -2.121
  -1.255  -3.175  -2.121
  -1.004  -3.385  -2.121
  -0.724  -3.556  -2.121
  -0.423  -3.684  -2.121
  -0.106  -3.767  -2.121
   0.220  -3.802  -2.121
   0.547  -3.790  -2.121
   0.870  -3.731  -2.121
   1.180  -3.625  -2.121
   1.471  -3.475  -2.121
   1.737  -3.285  -2.121
   1.973  -3.057  -2.121
   2.173  -2.798  -2.121
   2.334  -2.512  -2.121
   2.451  -2.206  -2.121
   2.522  -1.887  -2.121
   2.331  -1.560  -2.361
   2.305  -1.234  -2.361
  -1.565  -2.355  -2.361
  -1.413  -2.645  -2.361
  -1.217  -2.906  -2.361
  -0.981  -3.132  -2.361
  -0.713  -3.318  -2.361
  -0.418  -3.458  -2.361
  -0.104  -3.548  -2.361
   0.220  -3.588  -2.361
   0.547  -3.575  -2.361
   0.867  -3.509  -2.361
   1.172  -3.393  -2.361
   1.455  -3.230  -2.361
   1.708  -3.024  -2.361
   1.924  -2.779  -2.361
   2.099  -2.503  -2.361
   2.227  -2.203  -2.361
   2.305  -1.886  -2.361
   2.091  -1.560  -2.576
   2.061  -1.231  -2.576
  -1.367  -2.206  -2.576
  -1.219  -2.502  -2.576
  -1.020  -2.766  -2.576
  -0.776  -2.988  -2.576
  -0.496  -3.162  -2.576
  -0.188  -3.281  -2.576
   0.137  -3.342  -2.576
   0.467  -3.342  -2.576
   0.792  -3.281  -2.576
   1.100  -3.162  -2.576
   1.380  -2.988  -2.576
   1.624  -2.766  -2.576
   1.823  -2.502  -2.576
   1.971  -2.206  -2.576
   2.061  -1.889  -2.576
   1.829  -1.560  -2.762
   1.793  -1.232  -2.762
  -1.145  -2.048  -2.762
  -1.006  -2.347  -2.762
  -0.807  -2.610  -2.762
  -0.555  -2.824  -2.762
  -0.263  -2.978  -2.762
   0.055  -3.067  -2.762
   0.385  -3.085  -2.762
   0.710  -3.031  -2.762
   1.017  -2.909  -2.762
   1.291  -2.724  -2.762
   1.518  -2.484  -2.762
   1.688  -2.201  -2.762
   1.793  -1.888  -2.762
   1.547  -1.560  -2.918
   1.505  -1.238  -2.918
   1.380  -0.937  -2.918
  -0.901  -1.882  -2.918
  -0.776  -2.183  -2.918
  -0.579  -2.441  -2.918
  -0.321  -2.638  -2.918
  -0.020  -2.763  -2.918
   0.302  -2.805  -2.918
   0.624  -2.763  -2.918
   0.925  -2.638  -2.918
   1.183  -2.441  -2.918
   1.380  -2.183  -2.918
   1.505  -1.882  -2.918
   1.250  -1.560  -3.041
   1.193  -1.236  -3.041
   1.028  -0.951  -3.041
  -0.646  -1.560  -3.041
  -0.589  -1.884  -3.041
  -0.424  -2.169  -3.041
  -0.172  -2.381  -3.041
   0.137  -2.494  -3.041
   0.467  -2.494  -3.041
   0.776  -2.381  -3.041
   1.028  -2.169  -3.041
   1.193  -1.884  -3.041
   0.941  -1.560  -3.130
   0.855  -1.241  -3.130
   0.621  -1.007  -3.130
  -0.251  -1.241  -3.130
  -0.337  -1.560  -3.130
  -0.251  -1.879  -3.130
  -0.017  -2.113  -3.130
   0.302  -2.199  -3.130
   0.621  -2.113  -3.130
   0.855  -1.879  -3.130
   0.623  -1.560  -3.184
   0.463  -1.282  -3.184
   0.141  -1.282  -3.184
  -0.019  -1.560  -3.184
   0.141  -1.838  -3.184
   0.463  -1.838  -3.184
   0.302  -1.560  -3.202
  -2.903   0.336   1.755
  -2.972   0.021   1.755
  -2.972  -0.301   1.755
  -2.903  -0.616   1.755
  -3.119   0.491   1.573
  -3.207   0.181   1.573
  -3.237  -0.140   1.573
  -3.207  -0.461   1.573
  -3.119  -0.771   1.573
  -2.975  -1.059   1.573
  -2.781  -1.316   1.573
  -3.464   0.019   1.364
  -3.464  -0.299   1.364
  -3.413  -0.614   1.364
  -3.312  -0.916   1.364
  -3.164  -1.198   1.364
  -2.973  -1.453   1.364
  -2.743  -1.674   1.364
  -2.481  -1.855   1.364
  -3.674  -0.300   1.130
  -3.628  -0.616   1.130
  -3.536  -0.922   1.130
  -3.400  -1.211   1.130
  -3.224  -1.478   1.130
  -3.010  -1.716   1.130
  -2.765  -1.920   1.130
  -2.492  -2.087   1.130
  -3.814  -0.612   0.874
  -3.731  -0.918   0.874
  -3.607  -1.209   0.874
  -3.446  -1.482   0.874
  -3.249  -1.730   0.874
  -3.022  -1.950   0.874
  -2.767  -2.138   0.874
  -2.489  -2.291   0.874
  -2.193  -2.404   0.874
  -3.934  -0.767   0.599
  -3.837  -1.069   0.599
  -3.702  -1.355   0.599
  -3.532  -1.623   0.599
  -3.330  -1.867   0.599
  -3.099  -2.084   0.599
  -2.843  -2.270   0.599
  -2.565  -2.423   0.599
  -2.271  -2.539   0.599
  -3.962  -1.077   0.309
  -3.831  -1.368   0.309
  -3.666  -1.641   0.309
  -3.469  -1.893   0.309
  -3.244  -2.118   0.309
  -2.992  -2.315   0.309
  -2.719  -2.480   0.309
  -2.428  -2.611   0.309
  -3.930  -1.365   0.007
  -3.772  -1.640   0.007
  -3.582  -1.895   0.007
  -3.364  -2.126   0.007
  -3.121  -2.330   0.007
  -2.856  -2.504   0.007
  -2.572  -2.647   0.007
  -3.742  -1.775  -0.302
  -3.541  -2.021  -0.302
  -3.313  -2.243  -0.302
  -3.062  -2.437  -0.302
  -2.789  -2.601  -0.302
  -2.500  -2.733  -0.302
  -3.680  -1.886  -0.616
  -3.471  -2.120  -0.616
  -3.237  -2.329  -0.616
  -2.981  -2.511  -0.616
  -2.706  -2.663  -0.616
  -2.416  -2.783  -0.616
  -3.313  -2.243  -0.929
  -3.062  -2.437  -0.929
  -2.789  -2.601  -0.929
  -2.500  -2.733  -0.929
  -3.121  -2.330  -1.239
  -2.856  -2.504  -1.239
  -2.572  -2.647  -1.239
  -2.274  -2.755  -1.239
  -2.992  -2.315  -1.541
  -2.719  -2.480  -1.541
  -2.428  -2.611  -1.541
  -2.123  -2.706  -1.541
  -2.843  -2.270  -1.831
  -2.565  -2.423  -1.831
  -2.271  -2.539  -1.831
  -1.964  -2.618  -1.831
  -2.489  -2.291  -2.106
  -2.193  -2.404  -2.106
  -1.885  -2.478  -2.106
  -2.198  -2.212  -2.362
  -1.889  -2.293  -2.362
  -1.887  -2.080  -2.596
  -1.571  -2.118  -2.596
  -1.652  -1.878  -2.805
  -1.330  -1.878  -2.805
  -1.092  -1.575  -2.987
  -0.793  -1.456  -2.987
  -3.451   0.508   1.416
  -3.792   0.678   1.248
  -3.715   0.329   1.248
  -4.052   0.501   1.047
  -3.954   0.158   1.047
  -3.795  -0.161   1.047
  -4.337   0.680   0.815
  -4.280   0.331   0.815
  -4.169  -0.003   0.815
  -4.005  -0.316   0.815
  -4.569   1.033   0.556
  -4.569   0.679   0.556
  -4.518   0.329   0.556
  -4.416  -0.010   0.556
  -4.266  -0.330   0.556
  -4.070  -0.625   0.556
  -4.771   1.031   0.272
  -4.771   0.681   0.272
  -4.724   0.333   0.272
  -4.632  -0.005   0.272
  -4.495  -0.328   0.272
  -4.316  -0.630   0.272
  -4.099  -0.905   0.272
  -4.923   1.206  -0.032
  -4.945   0.856  -0.032
  -4.993   1.556  -0.353
  -5.057   1.209  -0.353
  -4.992   1.890  -0.687
  -5.093   1.553  -0.687
  -4.990   2.055  -1.030
  -4.777   2.505  -1.377
  -4.945   2.201  -1.377
  -4.644   2.667  -1.724
  -4.834   2.371  -1.724
  -1.627   3.832  -2.067
  -4.226   3.054  -2.067
  -4.467   2.799  -2.067
  -4.677   2.517  -2.067
  -4.853   2.212  -2.067
  -1.799   3.761  -2.401
  -2.152   3.782  -2.401
  -2.505   3.761  -2.401
  -2.852   3.697  -2.401
  -3.190   3.592  -2.401
  -3.512   3.447  -2.401
  -3.814   3.264  -2.401
  -4.092   3.046  -2.401
  -4.342   2.796  -2.401
  -4.560   2.518  -2.401
  -2.327   3.643  -2.722
  -2.675   3.600  -2.722
  -3.015   3.512  -2.722
  -3.341   3.383  -2.722
  -3.649   3.214  -2.722
  -3.932   3.008  -2.722
  -4.188   2.768  -2.722
  -4.412   2.498  -2.722
  -1.977  -1.931  -2.722
  -2.589   3.444  -3.026
  -2.930   3.363  -3.026
  -3.257   3.237  -3.026
  -3.564   3.068  -3.026
  -3.847   2.860  -3.026
  -4.099   2.617  -3.026
  -4.316   2.342  -3.026
  -1.889  -1.756  -3.026
  -1.544  -1.697  -3.026
  -1.209  -1.593  -3.026
  -0.891  -1.446  -3.026
  -2.935   3.150  -3.310
  -3.260   3.011  -3.310
  -3.562   2.827  -3.310
  -3.834   2.601  -3.310
  -4.070   2.337  -3.310
  -1.887  -1.553  -3.310
  -1.539  -1.489  -3.310
  -1.204  -1.375  -3.310
  -0.889  -1.213  -3.310
  -0.602  -1.007  -3.310
  -2.929   2.906  -3.569
  -3.248   2.754  -3.569
  -3.538   2.554  -3.569
  -3.793   2.310  -3.569
  -4.005   2.028  -3.569
  -1.888  -1.320  -3.569
  -1.542  -1.249  -3.569
  -1.212  -1.124  -3.569
  -0.907  -0.948  -3.569
  -3.014   2.586  -3.801
  -3.317   2.398  -3.801
  -3.580   2.158  -3.801
  -3.795   1.874  -3.801
  -1.974  -1.069  -3.801
  -1.623  -1.003  -3.801
  -1.290  -0.874  -3.801
  -3.078   2.221  -4.002
  -3.349   1.990  -4.002
  -3.565   1.706  -4.002
  -2.063  -0.791  -4.002
  -1.711  -0.733  -4.002
  -3.103   1.807  -4.170
  -3.317   1.529  -4.170
  -2.152  -0.489  -4.170
  -3.114   1.206  -4.303
  -2.330  -0.152  -4.303
  -2.749   0.511  -4.399
  -3.764   1.839   1.462
  -3.764   1.539   1.462
  -3.700   1.247   1.462
  -3.574   0.976   1.462
  -3.393   0.738   1.462
  -3.767   2.542   1.294
  -3.901   2.275   1.294
  -3.982   1.987   1.294
  -4.010   1.689   1.294
  -3.982   1.391   1.294
  -3.901   1.103   1.294
  -3.767   0.836   1.294
  -3.765   2.908   1.099
  -3.943   2.672   1.099
  -4.080   2.410   1.099
  -4.174   2.129   1.099
  -4.222   1.837   1.099
  -4.222   1.541   1.099
  -4.174   1.249   1.099
  -4.080   0.968   1.099
  -3.572   3.342   0.882
  -3.800   3.152   0.882
  -3.998   2.931   0.882
  -4.162   2.684   0.882
  -4.288   2.415   0.882
  -4.373   2.131   0.882
  -4.416   1.837   0.882
  -4.416   1.541   0.882
  -4.373   1.247   0.882
  -4.288   0.963   0.882
  -3.574   3.545   0.644
  -3.810   3.370   0.644
  -4.022   3.166   0.644
  -4.204   2.935   0.644
  -4.354   2.682   0.644
  -4.469   2.411   0.644
  -4.546   2.128   0.644
  -4.586   1.836   0.644
  -4.586   1.542   0.644
  -4.546   1.251   0.644
  -3.386   3.809   0.389
  -3.644   3.667   0.389
  -3.882   3.494   0.389
  -4.097   3.293   0.389
  -4.284   3.066   0.389
  -4.442   2.818   0.389
  -4.567   2.551   0.389
  -4.658   2.272   0.389
  -4.713   1.983   0.389
  -4.732   1.689   0.389
  -4.713   1.395   0.389
  -2.976   4.072   0.120
  -3.259   3.984   0.120
  -3.529   3.862   0.120
  -3.783   3.709   0.120
  -4.016   3.526   0.120
  -4.226   3.316   0.120
  -4.409   3.083   0.120
  -4.562   2.829   0.120
  -4.684   2.559   0.120
  -4.772   2.276   0.120
  -4.825   1.985   0.120
  -4.843   1.689   0.120
  -4.825   1.393   0.120
  -2.829   4.185  -0.160
  -3.116   4.117  -0.160
  -3.393   4.017  -0.160
  -3.656   3.884  -0.160
  -3.903   3.722  -0.160
  -4.128   3.533  -0.160
  -4.331   3.318  -0.160
  -4.507   3.082  -0.160
  -4.654   2.827  -0.160
  -4.771   2.556  -0.160
  -4.855   2.274  -0.160
  -4.907   1.983  -0.160
  -4.924   1.689  -0.160
  -2.463   4.272  -0.448
  -2.757   4.246  -0.448
  -3.046   4.188  -0.448
  -3.326   4.097  -0.448
  -3.595   3.974  -0.448
  -3.847   3.822  -0.448
  -4.081   3.642  -0.448
  -4.292   3.436  -0.448
  -4.479   3.208  -0.448
  -4.639   2.959  -0.448
  -4.769   2.695  -0.448
  -4.868   2.417  -0.448
  -4.935   2.130  -0.448
  -4.968   1.837  -0.448
  -2.389   4.289  -0.739
  -2.680   4.273  -0.739
  -2.968   4.224  -0.739
  -3.248   4.143  -0.739
  -3.517   4.032  -0.739
  -3.772   3.890  -0.739
  -4.010   3.722  -0.739
  -4.227   3.527  -0.739
  -4.422   3.310  -0.739
  -4.590   3.072  -0.739
  -4.732   2.817  -0.739
  -4.843   2.548  -0.739
  -4.924   2.268  -0.739
  -4.973   1.980  -0.739
  -2.168   4.263  -1.030
  -2.463   4.272  -1.030
  -2.757   4.246  -1.030
  -3.046   4.188  -1.030
  -3.326   4.097  -1.030
  -3.595   3.974  -1.030
  -3.847   3.822  -1.030
  -4.081   3.642  -1.030
  -4.292   3.436  -1.030
  -4.479   3.208  -1.030
  -4.639   2.959  -1.030
  -4.769   2.695  -1.030
  -4.868   2.417  -1.030
  -1.949   4.185  -1.318
  -2.242   4.220  -1.318
  -2.536   4.220  -1.318
  -2.829   4.185  -1.318
  -3.116   4.117  -1.318
  -3.393   4.017  -1.318
  -3.656   3.884  -1.318
  -3.903   3.722  -1.318
  -4.128   3.533  -1.318
  -4.331   3.318  -1.318
  -4.507   3.082  -1.318
  -4.654   2.827  -1.318
  -4.771   2.556  -1.318
  -1.802   4.072  -1.598
  -2.093   4.125  -1.598
  -2.389   4.143  -1.598