 $system timlim=999888777
         mwords=100 $end
 $contrl exetyp=run
         runtyp=energy scftyp=rhf
         icharg=-1 mult=1 units=angs coord=unique
         maxit=50 ispher=1 qmttol=1d-6 icut=12 itol=22 $end
 $scf    dirscf=.t. diis=.t. soscf=.f.
         fdiff=.f. conv=1d-6
         npreo(1)=0,-1,1,9999 $end
 $elpot  iepot=1 where=points $end
 $basis  gbasis=n311 ngauss=6
         ndfunc=1 npfunc=1 diffsp=.t. diffs=.t. $end
 $DATA
TS1a_hfd_irc200_all_revmov.pdb
C1
P     15.0    -0.04300  -0.01200  -0.01500 
O      8.0    -0.02700  -0.27400   1.53800 
O      8.0     1.02300   0.72200  -0.69300 
F      9.0     0.28100  -1.56100  -0.33400 
O      8.0    -1.49300  -0.13700  -0.61800 
C      6.0    -2.15200   0.85600  -1.37700 
H      1.0    -2.42400   1.67800  -0.73900 
H      1.0    -1.50400   1.21000  -2.17100 
H      1.0    -3.01400   0.36300  -1.81000 
C      6.0     0.49200   0.60900   2.51100 
H      1.0     0.54700   0.02900   3.42500 
H      1.0     1.48800   0.93100   2.23000 
H      1.0    -0.15200   1.46500   2.60400 
O      8.0    -0.89800   2.10500   0.70100 
H      1.0    -0.28500   2.72300   0.32400 
 $END
 $POINTS
ANGS 3033
  -2.210  -2.047   1.417
   2.562  -1.444   1.417
  -2.109  -2.343   1.075
   2.869  -1.117   1.075
   2.980  -1.112   0.719
   3.088  -0.754   0.719
   3.046  -1.114   0.354
  -0.232  -1.085  -3.130
   0.792  -0.713  -3.130
  -0.043  -0.746  -3.232
   0.324  -0.648  -3.232
   0.593  -0.379  -3.232
  -1.509  -1.587   3.518
  -2.072  -1.056   3.284
  -1.936  -1.345   3.284
  -1.760  -1.612   3.284
  -1.546  -1.850   3.284
  -1.301  -2.054   3.284
  -1.028  -2.221   3.284
  -0.734  -2.346   3.284
  -0.425  -2.427   3.284
  -2.393  -0.432   3.028
  -2.350  -0.746   3.028
  -2.267  -1.052   3.028
  -2.143  -1.343   3.028
  -1.982  -1.616   3.028
  -1.785  -1.864   3.028
  -1.558  -2.084   3.028
  -1.303  -2.272   3.028
  -1.025  -2.425   3.028
  -0.729  -2.538   3.028
  -0.421  -2.612   3.028
  -0.106  -2.644   3.028
   0.210  -2.633   3.028
   0.523  -2.580   3.028
  -2.550  -0.274   2.753
  -2.530  -0.590   2.753
  -2.470  -0.901   2.753
  -2.373  -1.203   2.753
  -2.238  -1.489   2.753
  -2.068  -1.757   2.753
  -1.866  -2.001   2.753
  -1.635  -2.218   2.753
  -1.379  -2.404   2.753
  -1.101  -2.557   2.753
  -0.807  -2.673   2.753
  -0.500  -2.752   2.753
  -0.185  -2.792   2.753
   0.131  -2.792   2.753
   0.446  -2.752   2.753
   0.753  -2.673   2.753
   1.047  -2.557   2.753
   1.325  -2.404   2.753
  -2.651   0.045   2.463
  -2.670  -0.274   2.463
  -2.651  -0.593   2.463
  -2.593  -0.906   2.463
  -2.498  -1.211   2.463
  -2.367  -1.502   2.463
  -2.202  -1.775   2.463
  -2.005  -2.027   2.463
  -1.780  -2.252   2.463
  -1.528  -2.449   2.463
  -1.255  -2.614   2.463
  -0.964  -2.745   2.463
  -0.659  -2.840   2.463
  -0.346  -2.898   2.463
  -0.027  -2.917   2.463
   0.292  -2.898   2.463
   0.605  -2.840   2.463
   0.910  -2.745   2.463
   1.201  -2.614   2.463
   1.474  -2.449   2.463
   1.726  -2.252   2.463
  -2.683   0.356   2.161
  -2.738   0.043   2.161
  -2.757  -0.274   2.161
  -2.738  -0.591   2.161
  -2.683  -0.904   2.161
  -2.592  -1.208   2.161
  -2.466  -1.499   2.161
  -2.308  -1.774   2.161
  -2.118  -2.029   2.161
  -1.900  -2.260   2.161
  -1.657  -2.464   2.161
  -1.392  -2.638   2.161
  -1.108  -2.781   2.161
  -0.810  -2.889   2.161
  -0.501  -2.962   2.161
  -0.186  -2.999   2.161
   0.132  -2.999   2.161
   1.054  -2.781   2.161
   1.338  -2.638   2.161
   1.603  -2.464   2.161
   1.846  -2.260   2.161
  -2.805  -0.433   1.852
  -2.769  -0.748   1.852
  -2.697  -1.058   1.852
  -2.590  -1.357   1.852
  -2.450  -1.642   1.852
  -2.278  -1.909   1.852
  -2.077  -2.155   1.852
  -1.849  -2.377   1.852
  -1.598  -2.571   1.852
  -1.325  -2.735   1.852
   2.127  -2.035   1.852
  -2.398  -1.764   1.538
  -2.216  -2.020   1.538
  -2.007  -2.254   1.538
  -1.773  -2.463   1.538
   3.546   0.722   0.522
   3.526   1.038   0.522
   3.466   1.349   0.522
   3.369   1.651   0.522
   3.234   1.937   0.522
   3.064   2.205   0.522
   2.862   2.449   0.522
   2.631   2.666   0.522
   2.375   2.852   0.522
   3.234  -0.493   0.522
   3.369  -0.207   0.522
   3.466   0.095   0.522
   3.526   0.406   0.522
   3.666   0.722   0.232
   3.647   1.041   0.232
   3.589   1.354   0.232
   3.494   1.659   0.232
   3.363   1.950   0.232
   3.198   2.223   0.232
   3.001   2.475   0.232
   2.776   2.700   0.232
   2.524   2.897   0.232
   3.198  -0.779   0.232
   3.363  -0.506   0.232
   3.494  -0.215   0.232
   3.589   0.090   0.232
   3.647   0.403   0.232
   3.753   0.722  -0.070
   3.734   1.039  -0.070
   3.679   1.352  -0.070
   3.588   1.656  -0.070
   3.462   1.947  -0.070
   3.304   2.222  -0.070
   3.114   2.477  -0.070
   2.896   2.708  -0.070
   2.653   2.912  -0.070
   2.388   3.086  -0.070
   3.114  -1.033  -0.070
   3.304  -0.778  -0.070
   3.462  -0.503  -0.070
   3.588  -0.212  -0.070
   3.679   0.092  -0.070
   3.734   0.405  -0.070
   3.805   0.722  -0.379
   3.787   1.039  -0.379
   3.733   1.352  -0.379
   3.644   1.657  -0.379
   3.520   1.950  -0.379
   3.364   2.226  -0.379
   3.177   2.483  -0.379
   2.962   2.717  -0.379
   2.722   2.925  -0.379
   2.460   3.105  -0.379
   2.179   3.253  -0.379
   3.177  -1.039  -0.379
   3.364  -0.782  -0.379
   3.520  -0.506  -0.379
   3.644  -0.213  -0.379
   3.733   0.092  -0.379
   3.787   0.405  -0.379
   3.823   0.722  -0.693
   3.805   1.036  -0.693
   3.753   1.345  -0.693
   3.666   1.647  -0.693
   3.546   1.937  -0.693
   3.394   2.212  -0.693
   3.212   2.468  -0.693
   3.003   2.702  -0.693
   2.769   2.911  -0.693
   2.513   3.093  -0.693
   2.238   3.245  -0.693
   3.212  -1.024  -0.693
   3.394  -0.768  -0.693
   3.546  -0.493  -0.693
   3.666  -0.203  -0.693
   3.753   0.099  -0.693
   3.805   0.408  -0.693
   3.805   0.722  -1.006
   3.787   1.039  -1.006
   3.733   1.352  -1.006
   3.644   1.657  -1.006
   3.520   1.950  -1.006
   3.364   2.226  -1.006
   3.177   2.483  -1.006
   2.962   2.717  -1.006
   2.722   2.925  -1.006
   2.460   3.105  -1.006
   2.179   3.253  -1.006
   1.883   3.368  -1.006
   3.177  -1.039  -1.006
   3.364  -0.782  -1.006
   3.520  -0.506  -1.006
   3.644  -0.213  -1.006
   3.733   0.092  -1.006
   3.787   0.405  -1.006
   3.753   0.722  -1.316
   3.734   1.039  -1.316
   3.679   1.352  -1.316
   3.588   1.656  -1.316
   3.462   1.947  -1.316
   3.304   2.222  -1.316
   3.114   2.477  -1.316
   2.896   2.708  -1.316
   2.653   2.912  -1.316
   2.388   3.086  -1.316
   2.104   3.229  -1.316
   1.806   3.337  -1.316
   3.114  -1.033  -1.316
   3.304  -0.778  -1.316
   3.462  -0.503  -1.316
   3.588  -0.212  -1.316
   3.679   0.092  -1.316
   3.734   0.405  -1.316
   3.666   0.722  -1.618
   3.647   1.041  -1.618
   3.589   1.354  -1.618
   3.494   1.659  -1.618
   3.363   1.950  -1.618
   3.198   2.223  -1.618
   3.001   2.475  -1.618
   2.776   2.700  -1.618
   2.524   2.897  -1.618
   2.251   3.062  -1.618
   1.960   3.193  -1.618
   1.655   3.288  -1.618
   1.342   3.346  -1.618
   3.001  -1.031  -1.618
   3.198  -0.779  -1.618
   3.363  -0.506  -1.618
   3.494  -0.215  -1.618
   3.589   0.090  -1.618
   3.647   0.403  -1.618
   3.546   0.722  -1.908
   3.526   1.038  -1.908
   3.466   1.349  -1.908
   3.369   1.651  -1.908
   3.234   1.937  -1.908
   3.064   2.205  -1.908
   2.862   2.449  -1.908
   2.631   2.666  -1.908
   2.375   2.852  -1.908
   2.097   3.005  -1.908
   1.803   3.121  -1.908
   1.496   3.200  -1.908
   1.181   3.240  -1.908
   2.862  -1.005  -1.908
   3.064  -0.761  -1.908
   3.234  -0.493  -1.908
   3.369  -0.207  -1.908
   3.466   0.095  -1.908
   3.526   0.406  -1.908
   3.394   0.722  -2.183
   3.373   1.038  -2.183
   3.310   1.348  -2.183
   3.206   1.648  -2.183
   3.063   1.930  -2.183
   2.884   2.191  -2.183
   2.671   2.426  -2.183
   2.429   2.631  -2.183
   2.162   2.801  -2.183
   1.875   2.934  -2.183
   1.573   3.028  -2.183
   1.260   3.081  -2.183
   0.944   3.092  -2.183
   0.629   3.060  -2.183
   2.671  -0.982  -2.183
   2.884  -0.747  -2.183
   3.063  -0.486  -2.183
   3.206  -0.204  -2.183
   3.310   0.096  -2.183
   3.373   0.406  -2.183
   3.212   0.722  -2.439
   3.189   1.041  -2.439
   3.119   1.353  -2.439
   3.005   1.651  -2.439
   2.849   1.930  -2.439
   2.653   2.183  -2.439
   2.423   2.405  -2.439
   2.163   2.591  -2.439
   1.879   2.737  -2.439
   1.577   2.840  -2.439
   1.262   2.898  -2.439
   0.943   2.910  -2.439
   0.625   2.875  -2.439
   2.423  -0.961  -2.439
   2.653  -0.739  -2.439
   2.849  -0.486  -2.439
   3.005  -0.207  -2.439
   3.119   0.091  -2.439
   3.189   0.403  -2.439
   3.003   0.722  -2.673
   2.977   1.040  -2.673
   2.901   1.349  -2.673
   2.776   1.642  -2.673
   2.606   1.911  -2.673
   2.395   2.150  -2.673
   2.148   2.351  -2.673
   1.872   2.511  -2.673
   1.574   2.624  -2.673
   1.262   2.687  -2.673
   0.943   2.700  -2.673
   0.627   2.662  -2.673
   1.872  -1.067  -2.673
   2.148  -0.907  -2.673
   2.395  -0.706  -2.673
   2.606  -0.467  -2.673
   2.776  -0.198  -2.673
   2.901   0.095  -2.673
   2.977   0.404  -2.673
   2.769   0.722  -2.882
   2.739   1.043  -2.882
   2.651   1.353  -2.882
   2.507   1.641  -2.882
   2.313   1.898  -2.882
   2.075   2.115  -2.882
   1.801   2.285  -2.882
   1.501   2.401  -2.882
   1.184   2.460  -2.882
   0.862   2.460  -2.882
   1.501  -0.957  -2.882
   1.801  -0.841  -2.882
   2.075  -0.671  -2.882
   2.313  -0.454  -2.882
   2.507  -0.197  -2.882
   2.651   0.091  -2.882
   2.739   0.401  -2.882
   2.513   0.722  -3.064
   2.478   1.042  -3.064
   2.375   1.348  -3.064
   2.209   1.624  -3.064
   1.987   1.857  -3.064
   1.721   2.038  -3.064
   1.422   2.157  -3.064
   1.104   2.210  -3.064
   0.782   2.192  -3.064
   1.104  -0.766  -3.064
   1.422  -0.713  -3.064
   1.721  -0.594  -3.064
   1.987  -0.413  -3.064
   2.209  -0.180  -3.064
   2.375   0.096  -3.064
   2.478   0.402  -3.064
   2.238   0.722  -3.216
   2.196   1.036  -3.216
   2.075   1.329  -3.216
   1.882   1.581  -3.216
   1.630   1.774  -3.216
   1.337   1.895  -3.216
   1.023   1.937  -3.216
   0.709  -0.451  -3.216
   1.023  -0.493  -3.216
   1.337  -0.451  -3.216
   1.630  -0.330  -3.216
   1.882  -0.137  -3.216
   2.075   0.115  -3.216
   2.196   0.408  -3.216
   1.948   0.722  -3.336
   1.892   1.038  -3.336
   1.731   1.316  -3.336
   1.485   1.523  -3.336
   1.184   1.633  -3.336
   0.862   1.633  -3.336
   0.561  -0.079  -3.336
   0.862  -0.189  -3.336
   1.184  -0.189  -3.336
   1.485  -0.079  -3.336
   1.731   0.128  -3.336
   1.892   0.406  -3.336
   1.646   0.722  -3.423
   1.563   1.034  -3.423
   1.335   1.262  -3.423
   1.023   1.345  -3.423
   0.711   0.182  -3.423
   1.023   0.099  -3.423
   1.335   0.182  -3.423
   1.563   0.410  -3.423
   1.337   0.722  -3.475
   1.180   0.994  -3.475
   0.866   0.994  -3.475
   0.709   0.722  -3.475
   0.866   0.450  -3.475
   1.180   0.450  -3.475
   1.023   0.722  -3.493
   0.034  -3.068   2.096
   0.364  -3.086   2.096
   0.689  -3.032   2.096
   0.996  -2.910   2.096
   1.270  -2.725   2.096
  -0.797  -2.989   1.910
  -0.517  -3.163   1.910
  -0.209  -3.282   1.910
   0.116  -3.343   1.910
   0.446  -3.343   1.910
   0.771  -3.282   1.910
   1.079  -3.163   1.910
   1.359  -2.989   1.910
   1.603  -2.767   1.910
   1.802  -2.503   1.910
  -1.238  -2.907   1.695
  -1.002  -3.133   1.695
  -0.734  -3.319   1.695
  -0.439  -3.459   1.695
  -0.125  -3.549   1.695
   0.199  -3.589   1.695
   0.526  -3.576   1.695
   0.846  -3.510   1.695
   1.151  -3.394   1.695
   1.434  -3.231   1.695
   1.687  -3.025   1.695
   1.903  -2.780   1.695
   2.078  -2.504   1.695
   2.206  -2.204   1.695
   2.284  -1.887   1.695
   2.525  -1.561   1.455
  -1.676  -2.659   1.455
  -1.495  -2.932   1.455
  -1.276  -3.176   1.455
  -1.025  -3.386   1.455
  -0.745  -3.557   1.455
  -0.444  -3.685   1.455
  -0.127  -3.768   1.455
   0.199  -3.803   1.455
   0.526  -3.791   1.455
   0.849  -3.732   1.455
   1.159  -3.626   1.455
   1.450  -3.476   1.455
   1.716  -3.286   1.455
   1.952  -3.058   1.455
   2.152  -2.799   1.455
   2.313  -2.513   1.455
   2.430  -2.207   1.455
   2.501  -1.888   1.455
   2.711  -1.561   1.193
  -1.888  -2.657   1.193
  -1.722  -2.936   1.193
  -1.521  -3.191   1.193
  -1.288  -3.417   1.193
  -1.027  -3.609   1.193
  -0.742  -3.765   1.193
  -0.439  -3.882   1.193
  -0.123  -3.957   1.193
   0.200  -3.990   1.193
   0.524  -3.979   1.193
   0.844  -3.925   1.193
   1.154  -3.829   1.193
   1.449  -3.692   1.193
   1.722  -3.517   1.193
   1.970  -3.308   1.193
   2.188  -3.067   1.193
   2.372  -2.799   1.193
   2.518  -2.510   1.193
   2.625  -2.203   1.193
   2.689  -1.885   1.193
   2.867  -1.561   0.911
  -2.123  -2.513   0.911
  -1.985  -2.807   0.911
  -1.811  -3.081   0.911
  -1.604  -3.331   0.911
  -1.367  -3.553   0.911
  -1.105  -3.744   0.911
  -0.820  -3.901   0.911
  -0.518  -4.020   0.911
  -0.204  -4.101   0.911
   0.119  -4.142   0.911
   0.443  -4.142   0.911
   0.766  -4.101   0.911
   1.080  -4.020   0.911
   1.382  -3.901   0.911
   1.667  -3.744   0.911
   1.929  -3.553   0.911
   2.166  -3.331   0.911
   2.373  -3.081   0.911
   2.547  -2.807   0.911
   2.685  -2.513   0.911
   2.786  -2.204   0.911
   2.846  -1.885   0.911
   2.990  -1.561   0.614
   2.970  -1.234   0.614
  -2.118  -2.820   0.614
  -1.948  -3.100   0.614
  -1.747  -3.357   0.614
  -1.515  -3.589   0.614
  -1.258  -3.790   0.614
  -0.978  -3.960   0.614
  -0.680  -4.094   0.614
  -0.367  -4.191   0.614
  -0.046  -4.250   0.614
   0.281  -4.270   0.614
   0.608  -4.250   0.614
   0.929  -4.191   0.614
   1.242  -4.094   0.614
   1.540  -3.960   0.614
   1.820  -3.790   0.614
   2.077  -3.589   0.614
   2.309  -3.357   0.614
   2.510  -3.100   0.614
   2.680  -2.820   0.614
   2.814  -2.522   0.614
   2.911  -2.209   0.614
   2.970  -1.888   0.614
   3.079  -1.561   0.305
   3.060  -1.236   0.305
  -2.219  -2.817   0.305
  -2.057  -3.099   0.305
  -1.862  -3.360   0.305
  -1.639  -3.596   0.305
  -1.390  -3.805   0.305
  -1.118  -3.984   0.305
  -0.827  -4.130   0.305
  -0.521  -4.241   0.305
  -0.205  -4.317   0.305
   0.118  -4.354   0.305
   0.444  -4.354   0.305
   0.767  -4.317   0.305
   1.083  -4.241   0.305
   1.389  -4.130   0.305
   1.680  -3.984   0.305
   1.952  -3.805   0.305
   2.201  -3.596   0.305
   2.424  -3.360   0.305
   2.619  -3.099   0.305
   2.781  -2.817   0.305
   2.910  -2.518   0.305
   3.004  -2.206   0.305
   3.060  -1.886   0.305
   3.133  -1.561  -0.013
   3.114  -1.236  -0.013
  -2.202  -2.963  -0.013
  -2.026  -3.237  -0.013
  -1.820  -3.489  -0.013
  -1.587  -3.716  -0.013
  -1.329  -3.915  -0.013
  -1.050  -4.083  -0.013
  -0.754  -4.219  -0.013
  -0.444  -4.319  -0.013
  -0.125  -4.384  -0.013
   0.200  -4.412  -0.013
   0.525  -4.402  -0.013
   0.847  -4.356  -0.013
   1.162  -4.273  -0.013
   1.466  -4.155  -0.013
   1.754  -4.003  -0.013
   2.023  -3.819  -0.013
   2.269  -3.606  -0.013
   2.489  -3.366  -0.013
   2.680  -3.103  -0.013
   2.840  -2.819  -0.013
   2.967  -2.519  -0.013
   3.059  -2.207  -0.013
   3.114  -1.886  -0.013
   3.151  -1.561  -0.334
   3.133  -1.240  -0.334
  -2.305  -2.806  -0.334
  -2.149  -3.088  -0.334
  -1.963  -3.350  -0.334
  -1.748  -3.590  -0.334
  -1.508  -3.805  -0.334
  -1.246  -3.991  -0.334
  -0.964  -4.147  -0.334
  -0.667  -4.270  -0.334
  -0.358  -4.359  -0.334
  -0.040  -4.413  -0.334
   0.281  -4.431  -0.334
   0.602  -4.413  -0.334
   0.920  -4.359  -0.334
   1.229  -4.270  -0.334
   1.526  -4.147  -0.334
   1.808  -3.991  -0.334
   2.070  -3.805  -0.334
   2.310  -3.590  -0.334
   2.525  -3.350  -0.334
   2.711  -3.088  -0.334
   2.867  -2.806  -0.334
   2.990  -2.509  -0.334
   3.079  -2.200  -0.334
   3.133  -1.882  -0.334
   3.133  -1.561  -0.655
   3.114  -1.236  -0.655
  -2.202  -2.963  -0.655
  -2.026  -3.237  -0.655
  -1.820  -3.489  -0.655
  -1.587  -3.716  -0.655
  -1.329  -3.915  -0.655
  -1.050  -4.083  -0.655
  -0.754  -4.219  -0.655
  -0.444  -4.319  -0.655
  -0.125  -4.384  -0.655
   0.200  -4.412  -0.655
   0.525  -4.402  -0.655
   0.847  -4.356  -0.655
   1.162  -4.273  -0.655
   1.466  -4.155  -0.655
   1.754  -4.003  -0.655
   2.023  -3.819  -0.655
   2.269  -3.606  -0.655
   2.489  -3.366  -0.655
   2.680  -3.103  -0.655
   2.840  -2.819  -0.655
   2.967  -2.519  -0.655
   3.059  -2.207  -0.655
   3.114  -1.886  -0.655
   3.079  -1.561  -0.973
   3.060  -1.236  -0.973
  -2.057  -3.099  -0.973
  -1.862  -3.360  -0.973
  -1.639  -3.596  -0.973
  -1.390  -3.805  -0.973
  -1.118  -3.984  -0.973
  -0.827  -4.130  -0.973
  -0.521  -4.241  -0.973
  -0.205  -4.317  -0.973
   0.118  -4.354  -0.973
   0.444  -4.354  -0.973
   0.767  -4.317  -0.973
   1.083  -4.241  -0.973
   1.389  -4.130  -0.973
   1.680  -3.984  -0.973
   1.952  -3.805  -0.973
   2.201  -3.596  -0.973
   2.424  -3.360  -0.973
   2.619  -3.099  -0.973
   2.781  -2.817  -0.973
   2.910  -2.518  -0.973
   3.004  -2.206  -0.973
   3.060  -1.886  -0.973
   2.990  -1.561  -1.282
   2.970  -1.234  -1.282
  -2.118  -2.820  -1.282
  -1.948  -3.100  -1.282
  -1.747  -3.357  -1.282
  -1.515  -3.589  -1.282
  -1.258  -3.790  -1.282
  -0.978  -3.960  -1.282
  -0.680  -4.094  -1.282
  -0.367  -4.191  -1.282
  -0.046  -4.250  -1.282
   0.281  -4.270  -1.282
   0.608  -4.250  -1.282
   0.929  -4.191  -1.282
   1.242  -4.094  -1.282
   1.540  -3.960  -1.282
   1.820  -3.790  -1.282
   2.077  -3.589  -1.282
   2.309  -3.357  -1.282
   2.510  -3.100  -1.282
   2.680  -2.820  -1.282
   2.814  -2.522  -1.282
   2.911  -2.209  -1.282
   2.970  -1.888  -1.282
   2.867  -1.561  -1.579
   2.846  -1.237  -1.579
  -1.985  -2.807  -1.579
  -1.811  -3.081  -1.579
  -1.604  -3.331  -1.579
  -1.367  -3.553  -1.579
  -1.105  -3.744  -1.579
  -0.820  -3.901  -1.579
  -0.518  -4.020  -1.579
  -0.204  -4.101  -1.579
   0.119  -4.142  -1.579
   0.443  -4.142  -1.579
   0.766  -4.101  -1.579
   1.080  -4.020  -1.579
   1.382  -3.901  -1.579
   1.667  -3.744  -1.579
   1.929  -3.553  -1.579
   2.166  -3.331  -1.579
   2.373  -3.081  -1.579
   2.547  -2.807  -1.579
   2.685  -2.513  -1.579
   2.786  -2.204  -1.579
   2.846  -1.885  -1.579
   2.711  -1.561  -1.861
   2.689  -1.237  -1.861
  -1.888  -2.657  -1.861
  -1.722  -2.936  -1.861
  -1.521  -3.191  -1.861
  -1.288  -3.417  -1.861
  -1.027  -3.609  -1.861
  -0.742  -3.765  -1.861
  -0.439  -3.882  -1.861
  -0.123  -3.957  -1.861
   0.200  -3.990  -1.861
   0.524  -3.979  -1.861
   0.844  -3.925  -1.861
   1.154  -3.829  -1.861
   1.449  -3.692  -1.861
   1.722  -3.517  -1.861
   1.970  -3.308  -1.861
   2.188  -3.067  -1.861
   2.372  -2.799  -1.861
   2.518  -2.510  -1.861
   2.625  -2.203  -1.861
   2.689  -1.885  -1.861
   2.525  -1.561  -2.123
   2.501  -1.234  -2.123
  -1.676  -2.659  -2.123
  -1.495  -2.932  -2.123
  -1.276  -3.176  -2.123
  -1.025  -3.386  -2.123
  -0.745  -3.557  -2.123
  -0.444  -3.685  -2.123
  -0.127  -3.768  -2.123
   0.199  -3.803  -2.123
   0.526  -3.791  -2.123
   0.849  -3.732  -2.123
   1.159  -3.626  -2.123
   1.450  -3.476  -2.123
   1.716  -3.286  -2.123
   1.952  -3.058  -2.123
   2.152  -2.799  -2.123
   2.313  -2.513  -2.123
   2.430  -2.207  -2.123
   2.501  -1.888  -2.123
   2.310  -1.561  -2.363
   2.284  -1.235  -2.363
  -1.586  -2.356  -2.363
  -1.434  -2.646  -2.363
  -1.238  -2.907  -2.363
  -1.002  -3.133  -2.363
  -0.734  -3.319  -2.363
  -0.439  -3.459  -2.363
  -0.125  -3.549  -2.363
   0.199  -3.589  -2.363
   0.526  -3.576  -2.363
   0.846  -3.510  -2.363
   1.151  -3.394  -2.363
   1.434  -3.231  -2.363
   1.687  -3.025  -2.363
   1.903  -2.780  -2.363
   2.078  -2.504  -2.363
   2.206  -2.204  -2.363
   2.284  -1.887  -2.363
   2.070  -1.561  -2.578
   2.040  -1.232  -2.578
  -1.388  -2.207  -2.578
  -1.240  -2.503  -2.578
  -1.041  -2.767  -2.578
  -0.797  -2.989  -2.578
  -0.517  -3.163  -2.578
  -0.209  -3.282  -2.578
   0.116  -3.343  -2.578
   0.446  -3.343  -2.578
   0.771  -3.282  -2.578
   1.079  -3.163  -2.578
   1.359  -2.989  -2.578
   1.603  -2.767  -2.578
   1.802  -2.503  -2.578
   1.950  -2.207  -2.578
   2.040  -1.890  -2.578
   1.808  -1.561  -2.764
   1.772  -1.233  -2.764
  -1.166  -2.049  -2.764
  -1.027  -2.348  -2.764
  -0.828  -2.611  -2.764
  -0.576  -2.825  -2.764
  -0.284  -2.979  -2.764
   0.034  -3.068  -2.764
   0.364  -3.086  -2.764
   0.689  -3.032  -2.764
   0.996  -2.910  -2.764
   1.270  -2.725  -2.764
   1.497  -2.485  -2.764
   1.667  -2.202  -2.764
   1.772  -1.889  -2.764
   1.526  -1.561  -2.920
   1.484  -1.239  -2.920
  -0.922  -1.883  -2.920
  -0.797  -2.184  -2.920
  -0.600  -2.442  -2.920
  -0.342  -2.639  -2.920
  -0.041  -2.764  -2.920
   0.281  -2.806  -2.920
   0.603  -2.764  -2.920
   0.904  -2.639  -2.920
   1.162  -2.442  -2.920
   1.359  -2.184  -2.920
   1.484  -1.883  -2.920
   1.229  -1.561  -3.043
   1.172  -1.237  -3.043
   1.007  -0.952  -3.043
  -0.667  -1.561  -3.043
  -0.610  -1.885  -3.043
  -0.445  -2.170  -3.043
  -0.193  -2.382  -3.043
   0.116  -2.495  -3.043
   0.446  -2.495  -3.043
   0.755  -2.382  -3.043
   1.007  -2.170  -3.043
   1.172  -1.885  -3.043
   0.920  -1.561  -3.132
   0.834  -1.242  -3.132
   0.600  -1.008  -3.132
  -0.272  -1.242  -3.132
  -0.358  -1.561  -3.132
  -0.272  -1.880  -3.132
  -0.038  -2.114  -3.132
   0.281  -2.200  -3.132
   0.600  -2.114  -3.132
   0.834  -1.880  -3.132
   0.602  -1.561  -3.186
   0.442  -1.283  -3.186
   0.120  -1.283  -3.186
  -0.040  -1.561  -3.186
   0.120  -1.839  -3.186
   0.442  -1.839  -3.186
   0.281  -1.561  -3.204
  -2.905   0.339   1.753
  -2.974   0.024   1.753
  -2.974  -0.298   1.753
  -2.905  -0.613   1.753
  -2.769  -0.905   1.753
  -3.121   0.494   1.571
  -3.209   0.184   1.571
  -3.239  -0.137   1.571
  -3.209  -0.458   1.571
  -3.121  -0.768   1.571
  -2.977  -1.056   1.571
  -2.783  -1.313   1.571
  -2.545  -1.530   1.571
  -3.466   0.022   1.362
  -3.466  -0.296   1.362
  -3.415  -0.611   1.362
  -3.314  -0.913   1.362
  -3.166  -1.195   1.362
  -2.975  -1.450   1.362
  -2.745  -1.671   1.362
  -2.483  -1.852   1.362
  -3.676  -0.297   1.128
  -3.630  -0.613   1.128
  -3.538  -0.919   1.128
  -3.402  -1.208   1.128
  -3.226  -1.475   1.128
  -3.012  -1.713   1.128
  -2.767  -1.917   1.128
  -2.494  -2.084   1.128
  -3.816  -0.609   0.872
  -3.733  -0.915   0.872
  -3.609  -1.206   0.872
  -3.448  -1.479   0.872
  -3.251  -1.727   0.872
  -3.024  -1.947   0.872
  -2.769  -2.135   0.872
  -2.491  -2.288   0.872
  -2.195  -2.401   0.872
  -3.936  -0.764   0.597
  -3.839  -1.066   0.597
  -3.704  -1.352   0.597
  -3.534  -1.620   0.597
  -3.332  -1.864   0.597
  -3.101  -2.081   0.597
  -2.845  -2.267   0.597
  -2.567  -2.420   0.597
  -2.273  -2.536   0.597
  -3.964  -1.074   0.307
  -3.833  -1.365   0.307
  -3.668  -1.638   0.307
  -3.471  -1.890   0.307
  -3.246  -2.115   0.307
  -2.994  -2.312   0.307
  -2.721  -2.477   0.307
  -2.430  -2.608   0.307
  -3.932  -1.362   0.005
  -3.774  -1.637   0.005
  -3.584  -1.892   0.005
  -3.366  -2.123   0.005
  -3.123  -2.327   0.005
  -2.858  -2.501   0.005
  -2.574  -2.644   0.005
  -3.744  -1.772  -0.304
  -3.543  -2.018  -0.304
  -3.315  -2.240  -0.304
  -3.064  -2.434  -0.304
  -2.791  -2.598  -0.304
  -2.502  -2.730  -0.304
  -3.682  -1.883  -0.618
  -3.473  -2.117  -0.618
  -3.239  -2.326  -0.618
  -2.983  -2.508  -0.618
  -2.708  -2.660  -0.618
  -2.418  -2.780  -0.618
  -3.315  -2.240  -0.931
  -3.064  -2.434  -0.931
  -2.791  -2.598  -0.931
  -2.502  -2.730  -0.931
  -3.123  -2.327  -1.241
  -2.858  -2.501  -1.241
  -2.574  -2.644  -1.241
  -2.276  -2.752  -1.241
  -2.994  -2.312  -1.543
  -2.721  -2.477  -1.543
  -2.430  -2.608  -1.543
  -2.125  -2.703  -1.543
  -2.845  -2.267  -1.833
  -2.567  -2.420  -1.833
  -2.273  -2.536  -1.833
  -1.966  -2.615  -1.833
  -2.491  -2.288  -2.108
  -2.195  -2.401  -2.108
  -1.887  -2.475  -2.108
  -2.200  -2.209  -2.364
  -1.891  -2.290  -2.364
  -1.889  -2.077  -2.598
  -1.573  -2.115  -2.598
  -1.654  -1.875  -2.807
  -1.332  -1.875  -2.807
  -1.094  -1.572  -2.989
  -3.451   0.508   1.416
  -3.792   0.678   1.248
  -3.715   0.329   1.248
  -4.052   0.501   1.047
  -3.954   0.158   1.047
  -3.795  -0.161   1.047
  -4.337   0.680   0.815
  -4.280   0.331   0.815
  -4.169  -0.003   0.815
  -4.005  -0.316   0.815
  -4.569   0.679   0.556
  -4.518   0.329   0.556
  -4.416  -0.010   0.556
  -4.266  -0.330   0.556
  -4.070  -0.625   0.556
  -4.771   1.031   0.272
  -4.771   0.681   0.272
  -4.724   0.333   0.272
  -4.632  -0.005   0.272
  -4.495  -0.328   0.272
  -4.316  -0.630   0.272
  -4.099  -0.905   0.272
  -4.923   1.206  -0.032
  -4.945   0.856  -0.032
  -4.923   0.506  -0.032
  -4.993   1.556  -0.353
  -5.057   1.209  -0.353
  -5.093   1.553  -0.687
  -4.990   2.055  -1.030
  -5.108   1.724  -1.030
  -4.945   2.201  -1.377
  -4.644   2.667  -1.724
  -4.834   2.371  -1.724
  -4.990   2.055  -1.724
  -1.627   3.832  -2.067
  -1.976   3.873  -2.067
  -4.226   3.054  -2.067
  -4.467   2.799  -2.067
  -4.677   2.517  -2.067
  -4.853   2.212  -2.067
  -2.152   3.782  -2.401
  -2.505   3.761  -2.401
  -2.852   3.697  -2.401
  -3.190   3.592  -2.401
  -3.512   3.447  -2.401
  -3.814   3.264  -2.401
  -4.092   3.046  -2.401
  -4.342   2.796  -2.401
  -4.560   2.518  -2.401
  -4.743   2.216  -2.401
  -2.327   3.643  -2.722
  -2.675   3.600  -2.722
  -3.015   3.512  -2.722
  -3.341   3.383  -2.722
  -3.649   3.214  -2.722
  -3.932   3.008  -2.722
  -4.188   2.768  -2.722
  -4.412   2.498  -2.722
  -1.977  -1.931  -2.722
  -2.589   3.444  -3.026
  -2.930   3.363  -3.026
  -3.257   3.237  -3.026
  -3.564   3.068  -3.026
  -3.847   2.860  -3.026
  -4.099   2.617  -3.026
  -4.316   2.342  -3.026
  -1.889  -1.756  -3.026
  -1.544  -1.697  -3.026
  -1.209  -1.593  -3.026
  -0.891  -1.446  -3.026
  -2.935   3.150  -3.310
  -3.260   3.011  -3.310
  -3.562   2.827  -3.310
  -3.834   2.601  -3.310
  -4.070   2.337  -3.310
  -1.887  -1.553  -3.310
  -1.539  -1.489  -3.310
  -1.204  -1.375  -3.310
  -0.889  -1.213  -3.310
  -0.602  -1.007  -3.310
  -2.929   2.906  -3.569
  -3.248   2.754  -3.569
  -3.538   2.554  -3.569
  -3.793   2.310  -3.569
  -4.005   2.028  -3.569
  -1.888  -1.320  -3.569
  -1.542  -1.249  -3.569
  -1.212  -1.124  -3.569
  -0.907  -0.948  -3.569
  -3.014   2.586  -3.801
  -3.317   2.398  -3.801
  -3.580   2.158  -3.801
  -3.795   1.874  -3.801
  -1.974  -1.069  -3.801
  -1.623  -1.003  -3.801
  -1.290  -0.874  -3.801
  -3.078   2.221  -4.002
  -3.349   1.990  -4.002
  -3.565   1.706  -4.002
  -2.063  -0.791  -4.002
  -1.711  -0.733  -4.002
  -3.103   1.807  -4.170
  -3.317   1.529  -4.170
  -2.152  -0.489  -4.170
  -1.804  -0.443  -4.170
  -3.114   1.206  -4.303
  -2.330  -0.152  -4.303
  -2.842   0.856  -4.399
  -2.749   0.511  -4.399
  -2.497   0.259  -4.399
  -3.552   1.678   1.604
  -3.514   1.386   1.604
  -3.401   1.114   1.604
  -3.609   2.391   1.462
  -3.735   2.120   1.462
  -3.799   1.828   1.462
  -3.799   1.528   1.462
  -3.735   1.236   1.462
  -3.609   0.965   1.462
  -3.428   0.727   1.462
  -3.622   2.770   1.294
  -3.802   2.531   1.294
  -3.936   2.264   1.294
  -4.017   1.976   1.294
  -4.045   1.678   1.294
  -4.017   1.380   1.294
  -3.936   1.092   1.294
  -3.802   0.825   1.294
  -3.587   3.102   1.099
  -3.800   2.897   1.099
  -3.978   2.661   1.099
  -4.115   2.399   1.099
  -4.209   2.118   1.099
  -4.257   1.826   1.099
  -4.257   1.530   1.099
  -4.209   1.238   1.099
  -4.115   0.957   1.099
  -3.353   3.486   0.882
  -3.607   3.331   0.882
  -3.835   3.141   0.882
  -4.033   2.920   0.882
  -4.197   2.673   0.882
  -4.323   2.404   0.882
  -4.408   2.120   0.882
  -4.451   1.826   0.882
  -4.451   1.530   0.882
  -4.408   1.236   0.882
  -4.323   0.952   0.882
  -3.351   3.675   0.644
  -3.609   3.534   0.644
  -3.845   3.359   0.644
  -4.057   3.155   0.644
  -4.239   2.924   0.644
  -4.389   2.671   0.644
  -4.504   2.400   0.644
  -4.581   2.117   0.644
  -4.621   1.825   0.644
  -4.621   1.531   0.644
  -4.581   1.240   0.644
  -4.504   0.956   0.644
  -3.148   3.906   0.389
  -3.421   3.798   0.389
  -3.679   3.656   0.389
  -3.917   3.483   0.389
  -4.132   3.282   0.389
  -4.319   3.055   0.389
  -4.477   2.807   0.389
  -4.602   2.540   0.389
  -4.693   2.261   0.389
  -4.748   1.972   0.389
  -4.767   1.678   0.389
  -4.748   1.384   0.389
  -4.693   1.095   0.389
  -3.011   4.061   0.120
  -3.294   3.973   0.120
  -3.564   3.851   0.120
  -3.818   3.698   0.120
  -4.051   3.515   0.120
  -4.261   3.305   0.120
  -4.444   3.072   0.120
  -4.597   2.818   0.120
  -4.719   2.548   0.120
  -4.807   2.265   0.120
  -4.860   1.974   0.120
  -4.878   1.678   0.120
  -4.860   1.382   0.120
  -2.571   4.209  -0.160
  -2.864   4.174  -0.160
  -3.151   4.106  -0.160
  -3.428   4.006  -0.160
  -3.691   3.873  -0.160
  -3.938   3.711  -0.160
  -4.163   3.522  -0.160
  -4.366   3.307  -0.160
  -4.542   3.071  -0.160
  -4.689   2.816  -0.160
  -4.806   2.545  -0.160
  -4.890   2.263  -0.160
  -4.942   1.972  -0.160
  -4.959   1.678  -0.160
  -2.498   4.261  -0.448
  -2.792   4.235  -0.448
  -3.081   4.177  -0.448
  -3.361   4.086  -0.448
  -3.630   3.963  -0.448
  -3.882   3.811  -0.448
  -4.116   3.631  -0.448
  -4.327   3.425  -0.448
  -4.514   3.197  -0.448
  -4.674   2.948  -0.448
  -4.804   2.684  -0.448
  -4.903   2.406  -0.448
  -4.970   2.119  -0.448
  -5.003   1.826  -0.448
  -2.133   4.262  -0.739
  -2.424   4.278  -0.739
  -2.715   4.262  -0.739
  -3.003   4.213  -0.739
  -3.283   4.132  -0.739
  -3.552   4.021  -0.739
  -3.807   3.879  -0.739
  -4.045   3.711  -0.739
  -4.262   3.516  -0.739
  -4.457   3.299  -0.739
  -4.625   3.061  -0.739
  -4.767   2.806  -0.739
  -4.878   2.537  -0.739
  -4.959   2.257  -0.739
  -5.008   1.969  -0.739
  -2.203   4.252  -1.030
  -2.498   4.261  -1.030
  -2.792   4.235  -1.030
  -3.081   4.177  -1.030
  -3.361   4.086  -1.030
  -3.630   3.963  -1.030
  -3.882   3.811  -1.030