 $system timlim=999888777
         mwords=100 $end
 $contrl exetyp=run
         runtyp=energy scftyp=rhf
         icharg=-1 mult=1 units=angs coord=unique
         maxit=50 ispher=1 qmttol=1d-6 icut=12 itol=22 $end
 $scf    dirscf=.t. diis=.t. soscf=.f.
         fdiff=.f. conv=1d-6
         npreo(1)=0,-1,1,9999 $end
 $elpot  iepot=1 where=points $end
 $basis  gbasis=n311 ngauss=6
         ndfunc=1 npfunc=1 diffsp=.t. diffs=.t. $end
 $DATA
TS1a_hfd_irc200_all_revmov.pdb
C1
P     15.0    -0.03700   0.01200  -0.02200 
O      8.0     0.01400  -0.27400   1.53200 
O      8.0     1.05000   0.68400  -0.74000 
F      9.0     0.26100  -1.56000  -0.33400 
O      8.0    -1.49500  -0.13400  -0.62000 
C      6.0    -2.15200   0.85600  -1.37700 
H      1.0    -2.45000   1.67100  -0.74300 
H      1.0    -1.50100   1.22700  -2.16000 
H      1.0    -3.00400   0.36000  -1.82700 
C      6.0     0.55700   0.60400   2.49100 
H      1.0     0.65700   0.01700   3.39800 
H      1.0     1.53700   0.94400   2.17700 
H      1.0    -0.08900   1.45100   2.62900 
O      8.0    -0.79400   2.02300   0.63900 
H      1.0    -0.18100   2.63100   0.24900 
 $END
 $POINTS
ANGS 3030
  -2.204  -2.023   1.410
   2.875  -1.093   1.068
   2.986  -1.088   0.712
   3.094  -0.730   0.712
   3.052  -1.090   0.347
  -0.226  -1.061  -3.137
   0.508  -0.932  -3.137
  -0.037  -0.722  -3.239
   0.330  -0.624  -3.239
  -1.659  -1.332   3.512
  -1.468  -1.587   3.512
  -1.238  -1.808   3.512
  -2.123  -0.750   3.278
  -2.031  -1.056   3.278
  -1.895  -1.345   3.278
  -1.719  -1.612   3.278
  -1.505  -1.850   3.278
  -1.260  -2.054   3.278
  -0.987  -2.221   3.278
  -0.693  -2.346   3.278
  -0.384  -2.427   3.278
  -2.352  -0.432   3.022
  -2.309  -0.746   3.022
  -2.226  -1.052   3.022
  -2.102  -1.343   3.022
  -1.941  -1.616   3.022
  -1.744  -1.864   3.022
  -1.517  -2.084   3.022
  -1.262  -2.272   3.022
  -0.984  -2.425   3.022
  -0.688  -2.538   3.022
  -0.380  -2.612   3.022
  -0.065  -2.644   3.022
   0.251  -2.633   3.022
   0.564  -2.580   3.022
  -2.489   0.042   2.747
  -2.509  -0.274   2.747
  -2.489  -0.590   2.747
  -2.429  -0.901   2.747
  -2.332  -1.203   2.747
  -2.197  -1.489   2.747
  -2.027  -1.757   2.747
  -1.825  -2.001   2.747
  -1.594  -2.218   2.747
  -1.338  -2.404   2.747
  -1.060  -2.557   2.747
  -0.766  -2.673   2.747
  -0.459  -2.752   2.747
  -0.144  -2.792   2.747
   0.172  -2.792   2.747
   0.487  -2.752   2.747
   0.794  -2.673   2.747
   1.088  -2.557   2.747
   1.366  -2.404   2.747
  -2.552   0.358   2.457
  -2.610   0.045   2.457
  -2.629  -0.274   2.457
  -2.610  -0.593   2.457
  -2.552  -0.906   2.457
  -2.457  -1.211   2.457
  -2.326  -1.502   2.457
  -2.161  -1.775   2.457
  -1.964  -2.027   2.457
  -1.739  -2.252   2.457
  -1.487  -2.449   2.457
  -1.214  -2.614   2.457
  -0.923  -2.745   2.457
  -0.618  -2.840   2.457
  -0.305  -2.898   2.457
   0.014  -2.917   2.457
   0.333  -2.898   2.457
   0.646  -2.840   2.457
   0.951  -2.745   2.457
   1.242  -2.614   2.457
   1.515  -2.449   2.457
   1.767  -2.252   2.457
  -2.642   0.356   2.155
  -2.697   0.043   2.155
  -2.716  -0.274   2.155
  -2.697  -0.591   2.155
  -2.642  -0.904   2.155
  -2.551  -1.208   2.155
  -2.425  -1.499   2.155
  -2.267  -1.774   2.155
  -2.077  -2.029   2.155
  -1.859  -2.260   2.155
  -1.616  -2.464   2.155
  -1.351  -2.638   2.155
  -1.067  -2.781   2.155
  -0.769  -2.889   2.155
  -0.460  -2.962   2.155
  -0.145  -2.999   2.155
   0.173  -2.999   2.155
   0.797  -2.889   2.155
   1.095  -2.781   2.155
   1.379  -2.638   2.155
   1.644  -2.464   2.155
   1.887  -2.260   2.155
  -2.728  -0.748   1.846
  -2.656  -1.058   1.846
  -2.549  -1.357   1.846
  -2.409  -1.642   1.846
  -2.237  -1.909   1.846
  -2.036  -2.155   1.846
  -1.808  -2.377   1.846
  -1.557  -2.571   1.846
  -1.284  -2.735   1.846
   2.168  -2.035   1.846
  -2.357  -1.764   1.532
  -2.175  -2.020   1.532
  -1.966  -2.254   1.532
  -1.732  -2.463   1.532
   3.573   0.684   0.475
   3.553   1.000   0.475
   3.493   1.311   0.475
   3.396   1.613   0.475
   3.261   1.899   0.475
   3.091   2.167   0.475
   2.889   2.411   0.475
   2.658   2.628   0.475
   3.261  -0.531   0.475
   3.396  -0.245   0.475
   3.493   0.057   0.475
   3.553   0.368   0.475
   3.693   0.684   0.185
   3.674   1.003   0.185
   3.616   1.316   0.185
   3.521   1.621   0.185
   3.390   1.912   0.185
   3.225   2.185   0.185
   3.028   2.437   0.185
   2.803   2.662   0.185
   2.551   2.859   0.185
   3.225  -0.817   0.185
   3.390  -0.544   0.185
   3.521  -0.253   0.185
   3.616   0.052   0.185
   3.674   0.365   0.185
   3.780   0.684  -0.117
   3.761   1.001  -0.117
   3.706   1.314  -0.117
   3.615   1.618  -0.117
   3.489   1.909  -0.117
   3.331   2.184  -0.117
   3.141   2.439  -0.117
   2.923   2.670  -0.117
   2.680   2.874  -0.117
   2.415   3.048  -0.117
   3.141  -1.071  -0.117
   3.331  -0.816  -0.117
   3.489  -0.541  -0.117
   3.615  -0.250  -0.117
   3.706   0.054  -0.117
   3.761   0.367  -0.117
   3.832   0.684  -0.426
   3.814   1.001  -0.426
   3.760   1.314  -0.426
   3.671   1.619  -0.426
   3.547   1.912  -0.426
   3.391   2.188  -0.426
   3.204   2.445  -0.426
   2.989   2.679  -0.426
   2.749   2.887  -0.426
   2.487   3.067  -0.426
   3.204  -1.077  -0.426
   3.391  -0.820  -0.426
   3.547  -0.544  -0.426
   3.671  -0.251  -0.426
   3.760   0.054  -0.426
   3.814   0.367  -0.426
   3.850   0.684  -0.740
   3.832   0.998  -0.740
   3.780   1.307  -0.740
   3.693   1.609  -0.740
   3.573   1.899  -0.740
   3.421   2.174  -0.740
   3.239   2.430  -0.740
   3.030   2.664  -0.740
   2.796   2.873  -0.740
   2.540   3.055  -0.740
   2.265   3.207  -0.740
   3.239  -1.062  -0.740
   3.421  -0.806  -0.740
   3.573  -0.531  -0.740
   3.693  -0.241  -0.740
   3.780   0.061  -0.740
   3.832   0.370  -0.740
   3.832   0.684  -1.053
   3.814   1.001  -1.053
   3.760   1.314  -1.053
   3.671   1.619  -1.053
   3.547   1.912  -1.053
   3.391   2.188  -1.053
   3.204   2.445  -1.053
   2.989   2.679  -1.053
   2.749   2.887  -1.053
   2.487   3.067  -1.053
   2.206   3.215  -1.053
   3.204  -1.077  -1.053
   3.391  -0.820  -1.053
   3.547  -0.544  -1.053
   3.671  -0.251  -1.053
   3.760   0.054  -1.053
   3.814   0.367  -1.053
   3.780   0.684  -1.363
   3.761   1.001  -1.363
   3.706   1.314  -1.363
   3.615   1.618  -1.363
   3.489   1.909  -1.363
   3.331   2.184  -1.363
   3.141   2.439  -1.363
   2.923   2.670  -1.363
   2.680   2.874  -1.363
   2.415   3.048  -1.363
   2.131   3.191  -1.363
   1.833   3.299  -1.363
   3.141  -1.071  -1.363
   3.331  -0.816  -1.363
   3.489  -0.541  -1.363
   3.615  -0.250  -1.363
   3.706   0.054  -1.363
   3.761   0.367  -1.363
   3.693   0.684  -1.665
   3.674   1.003  -1.665
   3.616   1.316  -1.665
   3.521   1.621  -1.665
   3.390   1.912  -1.665
   3.225   2.185  -1.665
   3.028   2.437  -1.665
   2.803   2.662  -1.665
   2.551   2.859  -1.665
   2.278   3.024  -1.665
   1.987   3.155  -1.665
   1.682   3.250  -1.665
   2.803  -1.294  -1.665
   3.028  -1.069  -1.665
   3.225  -0.817  -1.665
   3.390  -0.544  -1.665
   3.521  -0.253  -1.665
   3.616   0.052  -1.665
   3.674   0.365  -1.665
   3.573   0.684  -1.955
   3.553   1.000  -1.955
   3.493   1.311  -1.955
   3.396   1.613  -1.955
   3.261   1.899  -1.955
   3.091   2.167  -1.955
   2.889   2.411  -1.955
   2.658   2.628  -1.955
   2.402   2.814  -1.955
   2.124   2.967  -1.955
   1.830   3.083  -1.955
   1.523   3.162  -1.955
   1.208   3.202  -1.955
   2.658  -1.260  -1.955
   2.889  -1.043  -1.955
   3.091  -0.799  -1.955
   3.261  -0.531  -1.955
   3.396  -0.245  -1.955
   3.493   0.057  -1.955
   3.553   0.368  -1.955
   3.421   0.684  -2.230
   3.400   1.000  -2.230
   3.337   1.310  -2.230
   3.233   1.610  -2.230
   3.090   1.892  -2.230
   2.911   2.153  -2.230
   2.698   2.388  -2.230
   2.456   2.593  -2.230
   2.189   2.763  -2.230
   1.902   2.896  -2.230
   1.600   2.990  -2.230
   1.287   3.043  -2.230
   0.971   3.054  -2.230
   0.656   3.022  -2.230
   2.456  -1.225  -2.230
   2.698  -1.020  -2.230
   2.911  -0.785  -2.230
   3.090  -0.524  -2.230
   3.233  -0.242  -2.230
   3.337   0.058  -2.230
   3.400   0.368  -2.230
   3.239   0.684  -2.486
   3.216   1.003  -2.486
   3.146   1.315  -2.486
   3.032   1.613  -2.486
   2.876   1.892  -2.486
   2.680   2.145  -2.486
   2.450   2.367  -2.486
   2.190   2.553  -2.486
   1.906   2.699  -2.486
   1.604   2.802  -2.486
   1.289   2.860  -2.486
   0.970   2.872  -2.486
   0.652   2.837  -2.486
   2.190  -1.185  -2.486
   2.450  -0.999  -2.486
   2.680  -0.777  -2.486
   2.876  -0.524  -2.486
   3.032  -0.245  -2.486
   3.146   0.053  -2.486
   3.216   0.365  -2.486
   3.030   0.684  -2.720
   3.004   1.002  -2.720
   2.928   1.311  -2.720
   2.803   1.604  -2.720
   2.633   1.873  -2.720
   2.422   2.112  -2.720
   2.175   2.313  -2.720
   1.899   2.473  -2.720
   1.601   2.586  -2.720
   1.289   2.649  -2.720
   0.970   2.662  -2.720
   0.654   2.624  -2.720
   1.899  -1.105  -2.720
   2.175  -0.945  -2.720
   2.422  -0.744  -2.720
   2.633  -0.505  -2.720
   2.803  -0.236  -2.720
   2.928   0.057  -2.720
   3.004   0.366  -2.720
   2.796   0.684  -2.929
   2.766   1.005  -2.929
   2.678   1.315  -2.929
   2.534   1.603  -2.929
   2.340   1.860  -2.929
   2.102   2.077  -2.929
   1.828   2.247  -2.929
   1.528   2.363  -2.929
   1.211   2.422  -2.929
   0.889   2.422  -2.929
   1.528  -0.995  -2.929
   1.828  -0.879  -2.929
   2.102  -0.709  -2.929
   2.340  -0.492  -2.929
   2.534  -0.235  -2.929
   2.678   0.053  -2.929
   2.766   0.363  -2.929
   2.540   0.684  -3.111
   2.505   1.004  -3.111
   2.402   1.310  -3.111
   2.236   1.586  -3.111
   2.014   1.819  -3.111
   1.748   2.000  -3.111
   1.449   2.119  -3.111
   1.131   2.172  -3.111
   0.809   2.154  -3.111
   0.809  -0.786  -3.111
   1.131  -0.804  -3.111
   1.449  -0.751  -3.111
   1.748  -0.632  -3.111
   2.014  -0.451  -3.111
   2.236  -0.218  -3.111
   2.402   0.058  -3.111
   2.505   0.364  -3.111
   2.265   0.684  -3.263
   2.223   0.998  -3.263
   2.102   1.291  -3.263
   1.909   1.543  -3.263
   1.657   1.736  -3.263
   1.364   1.857  -3.263
   1.050   1.899  -3.263
   0.736  -0.489  -3.263
   1.050  -0.531  -3.263
   1.364  -0.489  -3.263
   1.657  -0.368  -3.263
   1.909  -0.175  -3.263
   2.102   0.077  -3.263
   2.223   0.370  -3.263
   1.975   0.684  -3.383
   1.919   1.000  -3.383
   1.758   1.278  -3.383
   1.512   1.485  -3.383
   1.211   1.595  -3.383
   0.889   1.595  -3.383
   0.588  -0.117  -3.383
   0.889  -0.227  -3.383
   1.211  -0.227  -3.383
   1.512  -0.117  -3.383
   1.758   0.090  -3.383
   1.919   0.368  -3.383
   1.673   0.684  -3.470
   1.590   0.996  -3.470
   1.362   1.224  -3.470
   1.050   1.307  -3.470
   0.738   0.144  -3.470
   1.050   0.061  -3.470
   1.362   0.144  -3.470
   1.590   0.372  -3.470
   1.364   0.684  -3.522
   1.207   0.956  -3.522
   0.893   0.956  -3.522
   0.736   0.684  -3.522
   0.893   0.412  -3.522
   1.207   0.412  -3.522
   1.050   0.684  -3.540
   0.014  -3.067   2.096
   0.344  -3.085   2.096
   0.669  -3.031   2.096
   0.976  -2.909   2.096
   1.250  -2.724   2.096
  -0.817  -2.988   1.910
  -0.537  -3.162   1.910
  -0.229  -3.281   1.910
   0.096  -3.342   1.910
   0.426  -3.342   1.910
   0.751  -3.281   1.910
   1.059  -3.162   1.910
   1.339  -2.988   1.910
   1.583  -2.766   1.910
   1.782  -2.502   1.910
  -1.258  -2.906   1.695
  -1.022  -3.132   1.695
  -0.754  -3.318   1.695
  -0.459  -3.458   1.695
  -0.145  -3.548   1.695
   0.179  -3.588   1.695
   0.506  -3.575   1.695
   0.826  -3.509   1.695
   1.131  -3.393   1.695
   1.414  -3.230   1.695
   1.667  -3.024   1.695
   1.883  -2.779   1.695
   2.058  -2.503   1.695
   2.186  -2.203   1.695
  -1.696  -2.658   1.455
  -1.515  -2.931   1.455
  -1.296  -3.175   1.455
  -1.045  -3.385   1.455
  -0.765  -3.556   1.455
  -0.464  -3.684   1.455
  -0.147  -3.767   1.455
   0.179  -3.802   1.455
   0.506  -3.790   1.455
   0.829  -3.731   1.455
   1.139  -3.625   1.455
   1.430  -3.475   1.455
   1.696  -3.285   1.455
   1.932  -3.057   1.455
   2.132  -2.798   1.455
   2.293  -2.512   1.455
   2.410  -2.206   1.455
   2.481  -1.887   1.455
   2.691  -1.560   1.193
  -2.035  -2.357   1.193
  -1.908  -2.656   1.193
  -1.742  -2.935   1.193
  -1.541  -3.190   1.193
  -1.308  -3.416   1.193
  -1.047  -3.608   1.193
  -0.762  -3.764   1.193
  -0.459  -3.881   1.193
  -0.143  -3.956   1.193
   0.180  -3.989   1.193
   0.504  -3.978   1.193
   0.824  -3.924   1.193
   1.134  -3.828   1.193
   1.429  -3.691   1.193
   1.702  -3.516   1.193
   1.950  -3.307   1.193
   2.168  -3.066   1.193
   2.352  -2.798   1.193
   2.498  -2.509   1.193
   2.605  -2.202   1.193
   2.669  -1.884   1.193
   2.847  -1.560   0.911
  -2.143  -2.512   0.911
  -2.005  -2.806   0.911
  -1.831  -3.080   0.911
  -1.624  -3.330   0.911
  -1.387  -3.552   0.911
  -1.125  -3.743   0.911
  -0.840  -3.900   0.911
  -0.538  -4.019   0.911
  -0.224  -4.100   0.911
   0.099  -4.141   0.911
   0.423  -4.141   0.911
   0.746  -4.100   0.911
   1.060  -4.019   0.911
   1.362  -3.900   0.911
   1.647  -3.743   0.911
   1.909  -3.552   0.911
   2.146  -3.330   0.911
   2.353  -3.080   0.911
   2.527  -2.806   0.911
   2.665  -2.512   0.911
   2.766  -2.203   0.911
   2.826  -1.884   0.911
   2.970  -1.560   0.614
  -2.138  -2.819   0.614
  -1.968  -3.099   0.614
  -1.767  -3.356   0.614
  -1.535  -3.588   0.614
  -1.278  -3.789   0.614
  -0.998  -3.959   0.614
  -0.700  -4.093   0.614
  -0.387  -4.190   0.614
  -0.066  -4.249   0.614
   0.261  -4.269   0.614
   0.588  -4.249   0.614
   0.909  -4.190   0.614
   1.222  -4.093   0.614
   1.520  -3.959   0.614
   1.800  -3.789   0.614
   2.057  -3.588   0.614
   2.289  -3.356   0.614
   2.490  -3.099   0.614
   2.660  -2.819   0.614
   2.794  -2.521   0.614
   2.891  -2.208   0.614
   2.950  -1.887   0.614
   3.059  -1.560   0.305
   3.040  -1.235   0.305
  -2.239  -2.816   0.305
  -2.077  -3.098   0.305
  -1.882  -3.359   0.305
  -1.659  -3.595   0.305
  -1.410  -3.804   0.305
  -1.138  -3.983   0.305
  -0.847  -4.129   0.305
  -0.541  -4.240   0.305
  -0.225  -4.316   0.305
   0.098  -4.353   0.305
   0.424  -4.353   0.305
   0.747  -4.316   0.305
   1.063  -4.240   0.305
   1.369  -4.129   0.305
   1.660  -3.983   0.305
   1.932  -3.804   0.305
   2.181  -3.595   0.305
   2.404  -3.359   0.305
   2.599  -3.098   0.305
   2.761  -2.816   0.305
   2.890  -2.517   0.305
   2.984  -2.205   0.305
   3.040  -1.885   0.305
   3.113  -1.560  -0.013
   3.094  -1.235  -0.013
  -2.222  -2.962  -0.013
  -2.046  -3.236  -0.013
  -1.840  -3.488  -0.013
  -1.607  -3.715  -0.013
  -1.349  -3.914  -0.013
  -1.070  -4.082  -0.013
  -0.774  -4.218  -0.013
  -0.464  -4.318  -0.013
  -0.145  -4.383  -0.013
   0.180  -4.411  -0.013
   0.505  -4.401  -0.013
   0.827  -4.355  -0.013
   1.142  -4.272  -0.013
   1.446  -4.154  -0.013
   1.734  -4.002  -0.013
   2.003  -3.818  -0.013
   2.249  -3.605  -0.013
   2.469  -3.365  -0.013
   2.660  -3.102  -0.013
   2.820  -2.818  -0.013
   2.947  -2.518  -0.013
   3.039  -2.206  -0.013
   3.094  -1.885  -0.013
   3.131  -1.560  -0.334
   3.113  -1.239  -0.334
  -2.325  -2.805  -0.334
  -2.169  -3.087  -0.334
  -1.983  -3.349  -0.334
  -1.768  -3.589  -0.334
  -1.528  -3.804  -0.334
  -1.266  -3.990  -0.334
  -0.984  -4.146  -0.334
  -0.687  -4.269  -0.334
  -0.378  -4.358  -0.334
  -0.060  -4.412  -0.334
   0.261  -4.430  -0.334
   0.582  -4.412  -0.334
   0.900  -4.358  -0.334
   1.209  -4.269  -0.334
   1.506  -4.146  -0.334
   1.788  -3.990  -0.334
   2.050  -3.804  -0.334
   2.290  -3.589  -0.334
   2.505  -3.349  -0.334
   2.691  -3.087  -0.334
   2.847  -2.805  -0.334
   2.970  -2.508  -0.334
   3.059  -2.199  -0.334
   3.113  -1.881  -0.334
   3.113  -1.560  -0.655
   3.094  -1.235  -0.655
  -2.222  -2.962  -0.655
  -2.046  -3.236  -0.655
  -1.840  -3.488  -0.655
  -1.607  -3.715  -0.655
  -1.349  -3.914  -0.655
  -1.070  -4.082  -0.655
  -0.774  -4.218  -0.655
  -0.464  -4.318  -0.655
  -0.145  -4.383  -0.655
   0.180  -4.411  -0.655
   0.505  -4.401  -0.655
   0.827  -4.355  -0.655
   1.142  -4.272  -0.655
   1.446  -4.154  -0.655
   1.734  -4.002  -0.655
   2.003  -3.818  -0.655
   2.249  -3.605  -0.655
   2.469  -3.365  -0.655
   2.660  -3.102  -0.655
   2.820  -2.818  -0.655
   2.947  -2.518  -0.655
   3.039  -2.206  -0.655
   3.094  -1.885  -0.655
   3.059  -1.560  -0.973
  -2.239  -2.816  -0.973
  -2.077  -3.098  -0.973
  -1.882  -3.359  -0.973
  -1.659  -3.595  -0.973
  -1.410  -3.804  -0.973
  -1.138  -3.983  -0.973
  -0.847  -4.129  -0.973
  -0.541  -4.240  -0.973
  -0.225  -4.316  -0.973
   0.098  -4.353  -0.973
   0.424  -4.353  -0.973
   0.747  -4.316  -0.973
   1.063  -4.240  -0.973
   1.369  -4.129  -0.973
   1.660  -3.983  -0.973
   1.932  -3.804  -0.973
   2.181  -3.595  -0.973
   2.404  -3.359  -0.973
   2.599  -3.098  -0.973
   2.761  -2.816  -0.973
   2.890  -2.517  -0.973
   2.984  -2.205  -0.973
   3.040  -1.885  -0.973
   2.970  -1.560  -1.282
  -2.138  -2.819  -1.282
  -1.968  -3.099  -1.282
  -1.767  -3.356  -1.282
  -1.535  -3.588  -1.282
  -1.278  -3.789  -1.282
  -0.998  -3.959  -1.282
  -0.700  -4.093  -1.282
  -0.387  -4.190  -1.282
  -0.066  -4.249  -1.282
   0.261  -4.269  -1.282
   0.588  -4.249  -1.282
   0.909  -4.190  -1.282
   1.222  -4.093  -1.282
   1.520  -3.959  -1.282
   1.800  -3.789  -1.282
   2.057  -3.588  -1.282
   2.289  -3.356  -1.282
   2.490  -3.099  -1.282
   2.660  -2.819  -1.282
   2.794  -2.521  -1.282
   2.891  -2.208  -1.282
   2.950  -1.887  -1.282
   2.847  -1.560  -1.579
  -2.005  -2.806  -1.579
  -1.831  -3.080  -1.579
  -1.624  -3.330  -1.579
  -1.387  -3.552  -1.579
  -1.125  -3.743  -1.579
  -0.840  -3.900  -1.579
  -0.538  -4.019  -1.579
  -0.224  -4.100  -1.579
   0.099  -4.141  -1.579
   0.423  -4.141  -1.579
   0.746  -4.100  -1.579
   1.060  -4.019  -1.579
   1.362  -3.900  -1.579
   1.647  -3.743  -1.579
   1.909  -3.552  -1.579
   2.146  -3.330  -1.579
   2.353  -3.080  -1.579
   2.527  -2.806  -1.579
   2.665  -2.512  -1.579
   2.766  -2.203  -1.579
   2.826  -1.884  -1.579
   2.691  -1.560  -1.861
  -1.908  -2.656  -1.861
  -1.742  -2.935  -1.861
  -1.541  -3.190  -1.861
  -1.308  -3.416  -1.861
  -1.047  -3.608  -1.861
  -0.762  -3.764  -1.861
  -0.459  -3.881  -1.861
  -0.143  -3.956  -1.861
   0.180  -3.989  -1.861
   0.504  -3.978  -1.861
   0.824  -3.924  -1.861
   1.134  -3.828  -1.861
   1.429  -3.691  -1.861
   1.702  -3.516  -1.861
   1.950  -3.307  -1.861
   2.168  -3.066  -1.861
   2.352  -2.798  -1.861
   2.498  -2.509  -1.861
   2.605  -2.202  -1.861
   2.669  -1.884  -1.861
   2.505  -1.560  -2.123
  -1.696  -2.658  -2.123
  -1.515  -2.931  -2.123
  -1.296  -3.175  -2.123
  -1.045  -3.385  -2.123
  -0.765  -3.556  -2.123
  -0.464  -3.684  -2.123
  -0.147  -3.767  -2.123
   0.179  -3.802  -2.123
   0.506  -3.790  -2.123
   0.829  -3.731  -2.123
   1.139  -3.625  -2.123
   1.430  -3.475  -2.123
   1.696  -3.285  -2.123
   1.932  -3.057  -2.123
   2.132  -2.798  -2.123
   2.293  -2.512  -2.123
   2.410  -2.206  -2.123
   2.481  -1.887  -2.123
   2.290  -1.560  -2.363
  -1.606  -2.355  -2.363
  -1.454  -2.645  -2.363
  -1.258  -2.906  -2.363
  -1.022  -3.132  -2.363
  -0.754  -3.318  -2.363
  -0.459  -3.458  -2.363
  -0.145  -3.548  -2.363
   0.179  -3.588  -2.363
   0.506  -3.575  -2.363
   0.826  -3.509  -2.363
   1.131  -3.393  -2.363
   1.414  -3.230  -2.363
   1.667  -3.024  -2.363
   1.883  -2.779  -2.363
   2.058  -2.503  -2.363
   2.186  -2.203  -2.363
   2.264  -1.886  -2.363
   2.050  -1.560  -2.578
   2.020  -1.231  -2.578
  -1.408  -2.206  -2.578
  -1.260  -2.502  -2.578
  -1.061  -2.766  -2.578
  -0.817  -2.988  -2.578
  -0.537  -3.162  -2.578
  -0.229  -3.281  -2.578
   0.096  -3.342  -2.578
   0.426  -3.342  -2.578
   0.751  -3.281  -2.578
   1.059  -3.162  -2.578
   1.339  -2.988  -2.578
   1.583  -2.766  -2.578
   1.782  -2.502  -2.578
   1.930  -2.206  -2.578
   2.020  -1.889  -2.578
   1.788  -1.560  -2.764
   1.752  -1.232  -2.764
  -1.186  -2.048  -2.764
  -1.047  -2.347  -2.764
  -0.848  -2.610  -2.764
  -0.596  -2.824  -2.764
  -0.304  -2.978  -2.764
   0.014  -3.067  -2.764
   0.344  -3.085  -2.764
   0.669  -3.031  -2.764
   0.976  -2.909  -2.764
   1.250  -2.724  -2.764
   1.477  -2.484  -2.764
   1.647  -2.201  -2.764
   1.752  -1.888  -2.764
   1.506  -1.560  -2.920
   1.464  -1.238  -2.920
  -0.942  -1.882  -2.920
  -0.817  -2.183  -2.920
  -0.620  -2.441  -2.920
  -0.362  -2.638  -2.920
  -0.061  -2.763  -2.920
   0.261  -2.805  -2.920
   0.583  -2.763  -2.920
   0.884  -2.638  -2.920
   1.142  -2.441  -2.920
   1.339  -2.183  -2.920
   1.464  -1.882  -2.920
   1.209  -1.560  -3.043
   1.152  -1.236  -3.043
   0.987  -0.951  -3.043
  -0.687  -1.560  -3.043
  -0.630  -1.884  -3.043
  -0.465  -2.169  -3.043
  -0.213  -2.381  -3.043
   0.096  -2.494  -3.043
   0.426  -2.494  -3.043
   0.735  -2.381  -3.043
   0.987  -2.169  -3.043
   1.152  -1.884  -3.043
   0.900  -1.560  -3.132
   0.814  -1.241  -3.132
   0.580  -1.007  -3.132
  -0.292  -1.241  -3.132
  -0.378  -1.560  -3.132
  -0.292  -1.879  -3.132
  -0.058  -2.113  -3.132
   0.261  -2.199  -3.132
   0.580  -2.113  -3.132
   0.814  -1.879  -3.132
   0.582  -1.560  -3.186
   0.422  -1.282  -3.186
   0.100  -1.282  -3.186
  -0.060  -1.560  -3.186
   0.100  -1.838  -3.186
   0.422  -1.838  -3.186
   0.261  -1.560  -3.204
  -2.907   0.342   1.751
  -2.976   0.027   1.751
  -2.976  -0.295   1.751
  -2.907  -0.610   1.751
  -2.771  -0.902   1.751
  -3.123   0.497   1.569
  -3.211   0.187   1.569
  -3.241  -0.134   1.569
  -3.211  -0.455   1.569
  -3.123  -0.765   1.569
  -2.979  -1.053   1.569
  -2.785  -1.310   1.569
  -2.547  -1.527   1.569
  -3.468   0.025   1.360
  -3.468  -0.293   1.360
  -3.417  -0.608   1.360
  -3.316  -0.910   1.360
  -3.168  -1.192   1.360
  -2.977  -1.447   1.360
  -2.747  -1.668   1.360
  -2.485  -1.849   1.360
  -3.678  -0.294   1.126
  -3.632  -0.610   1.126
  -3.540  -0.916   1.126
  -3.404  -1.205   1.126
  -3.228  -1.472   1.126
  -3.014  -1.710   1.126
  -2.769  -1.914   1.126
  -2.496  -2.081   1.126
  -2.202  -2.206   1.126
  -3.818  -0.606   0.870
  -3.735  -0.912   0.870
  -3.611  -1.203   0.870
  -3.450  -1.476   0.870
  -3.253  -1.724   0.870
  -3.026  -1.944   0.870
  -2.771  -2.132   0.870
  -2.493  -2.285   0.870
  -3.938  -0.761   0.595
  -3.841  -1.063   0.595
  -3.706  -1.349   0.595
  -3.536  -1.617   0.595
  -3.334  -1.861   0.595
  -3.103  -2.078   0.595
  -2.847  -2.264   0.595
  -2.569  -2.417   0.595
  -2.275  -2.533   0.595
  -3.966  -1.071   0.305
  -3.835  -1.362   0.305
  -3.670  -1.635   0.305
  -3.473  -1.887   0.305
  -3.248  -2.112   0.305
  -2.996  -2.309   0.305
  -2.723  -2.474   0.305
  -2.432  -2.605   0.305
  -3.934  -1.359   0.003
  -3.776  -1.634   0.003
  -3.586  -1.889   0.003
  -3.368  -2.120   0.003
  -3.125  -2.324   0.003
  -2.860  -2.498   0.003
  -2.576  -2.641   0.003
  -3.746  -1.769  -0.306
  -3.545  -2.015  -0.306
  -3.317  -2.237  -0.306
  -3.066  -2.431  -0.306
  -2.793  -2.595  -0.306
  -2.504  -2.727  -0.306
  -3.684  -1.880  -0.620
  -3.475  -2.114  -0.620
  -3.241  -2.323  -0.620
  -2.985  -2.505  -0.620
  -2.710  -2.657  -0.620
  -2.420  -2.777  -0.620
  -3.317  -2.237  -0.933
  -3.066  -2.431  -0.933
  -2.793  -2.595  -0.933
  -2.504  -2.727  -0.933
  -3.125  -2.324  -1.243
  -2.860  -2.498  -1.243
  -2.576  -2.641  -1.243
  -2.278  -2.749  -1.243
  -2.996  -2.309  -1.545
  -2.723  -2.474  -1.545
  -2.432  -2.605  -1.545
  -2.127  -2.700  -1.545
  -2.847  -2.264  -1.835
  -2.569  -2.417  -1.835
  -2.275  -2.533  -1.835
  -1.968  -2.612  -1.835
  -2.493  -2.285  -2.110
  -2.197  -2.398  -2.110
  -1.889  -2.472  -2.110
  -2.202  -2.206  -2.366
  -1.893  -2.287  -2.366
  -1.891  -2.074  -2.600
  -1.575  -2.112  -2.600
  -1.656  -1.872  -2.809
  -1.334  -1.872  -2.809
  -3.451   0.508   1.416
  -3.715   0.329   1.248
  -4.052   0.501   1.047
  -3.954   0.158   1.047
  -3.795  -0.161   1.047
  -4.337   0.680   0.815
  -4.280   0.331   0.815
  -4.169  -0.003   0.815
  -4.005  -0.316   0.815
  -4.569   0.679   0.556
  -4.518   0.329   0.556
  -4.416  -0.010   0.556
  -4.266  -0.330   0.556
  -4.070  -0.625   0.556
  -4.771   1.031   0.272
  -4.771   0.681   0.272
  -4.724   0.333   0.272
  -4.632  -0.005   0.272
  -4.495  -0.328   0.272
  -4.316  -0.630   0.272
  -4.099  -0.905   0.272
  -4.923   1.206  -0.032
  -4.945   0.856  -0.032
  -4.923   0.506  -0.032
  -5.057   1.209  -0.353
  -5.093   1.553  -0.687
  -5.108   1.724  -1.030
  -4.945   2.201  -1.377
  -5.078   1.880  -1.377
  -4.644   2.667  -1.724
  -4.834   2.371  -1.724
  -4.990   2.055  -1.724
  -1.627   3.832  -2.067
  -1.976   3.873  -2.067
  -4.226   3.054  -2.067
  -4.467   2.799  -2.067
  -4.677   2.517  -2.067
  -4.853   2.212  -2.067
  -2.152   3.782  -2.401
  -2.505   3.761  -2.401
  -2.852   3.697  -2.401
  -3.190   3.592  -2.401
  -3.512   3.447  -2.401
  -3.814   3.264  -2.401
  -4.092   3.046  -2.401
  -4.342   2.796  -2.401
  -4.560   2.518  -2.401
  -4.743   2.216  -2.401
  -2.327   3.643  -2.722
  -2.675   3.600  -2.722
  -3.015   3.512  -2.722
  -3.341   3.383  -2.722
  -3.649   3.214  -2.722
  -3.932   3.008  -2.722
  -4.188   2.768  -2.722
  -4.412   2.498  -2.722
  -1.977  -1.931  -2.722
  -2.589   3.444  -3.026
  -2.930   3.363  -3.026
  -3.257   3.237  -3.026
  -3.564   3.068  -3.026
  -3.847   2.860  -3.026
  -4.099   2.617  -3.026
  -4.316   2.342  -3.026
  -1.889  -1.756  -3.026
  -1.544  -1.697  -3.026
  -1.209  -1.593  -3.026
  -0.891  -1.446  -3.026
  -2.935   3.150  -3.310
  -3.260   3.011  -3.310
  -3.562   2.827  -3.310
  -3.834   2.601  -3.310
  -4.070   2.337  -3.310
  -1.887  -1.553  -3.310
  -1.539  -1.489  -3.310
  -1.204  -1.375  -3.310
  -0.889  -1.213  -3.310
  -0.602  -1.007  -3.310
  -2.929   2.906  -3.569
  -3.248   2.754  -3.569
  -3.538   2.554  -3.569
  -3.793   2.310  -3.569
  -4.005   2.028  -3.569
  -1.888  -1.320  -3.569
  -1.542  -1.249  -3.569
  -1.212  -1.124  -3.569
  -0.907  -0.948  -3.569
  -3.014   2.586  -3.801
  -3.317   2.398  -3.801
  -3.580   2.158  -3.801
  -3.795   1.874  -3.801
  -1.974  -1.069  -3.801
  -1.623  -1.003  -3.801
  -1.290  -0.874  -3.801
  -3.078   2.221  -4.002
  -3.349   1.990  -4.002
  -3.565   1.706  -4.002
  -2.063  -0.791  -4.002
  -1.711  -0.733  -4.002
  -3.103   1.807  -4.170
  -3.317   1.529  -4.170
  -2.152  -0.489  -4.170
  -1.804  -0.443  -4.170
  -3.114   1.206  -4.303
  -2.330  -0.152  -4.303
  -2.842   0.856  -4.399
  -2.497   0.259  -4.399
  -3.427   2.235   1.600
  -3.540   1.963   1.600
  -3.578   1.671   1.600
  -3.540   1.379   1.600
  -3.427   1.107   1.600
  -3.248   0.873   1.600
  -3.454   2.622   1.458
  -3.635   2.384   1.458
  -3.761   2.113   1.458
  -3.825   1.821   1.458
  -3.825   1.521   1.458
  -3.761   1.229   1.458
  -3.635   0.958   1.458
  -3.454   0.720   1.458
  -3.427   2.965   1.290
  -3.648   2.763   1.290
  -3.828   2.524   1.290
  -3.962   2.257   1.290
  -4.043   1.969   1.290
  -4.071   1.671   1.290
  -4.043   1.373   1.290
  -3.962   1.085   1.290
  -3.828   0.818   1.290
  -3.369   3.263   1.095
  -3.613   3.095   1.095
  -3.826   2.890   1.095
  -4.004   2.654   1.095
  -4.141   2.392   1.095
  -4.235   2.111   1.095
  -4.283   1.819   1.095
  -4.283   1.523   1.095
  -4.235   1.231   1.095
  -4.141   0.950   1.095
  -3.106   3.595   0.878
  -3.379   3.479   0.878
  -3.633   3.324   0.878
  -3.861   3.134   0.878
  -4.059   2.913   0.878
  -4.223   2.666   0.878
  -4.349   2.397   0.878
  -4.434   2.113   0.878
  -4.477   1.819   0.878
  -4.477   1.523   0.878
  -4.434   1.229   0.878
  -4.349   0.945   0.878
  -3.102   3.774   0.640
  -3.377   3.668   0.640
  -3.635   3.527   0.640
  -3.871   3.352   0.640
  -4.083   3.148   0.640
  -4.265   2.917   0.640
  -4.415   2.664   0.640
  -4.530   2.393   0.640
  -4.607   2.110   0.640
  -4.647   1.818   0.640
  -4.647   1.524   0.640
  -4.607   1.233   0.640
  -4.530   0.949   0.640
  -2.889   3.972   0.385
  -3.174   3.899   0.385
  -3.447   3.791   0.385
  -3.705   3.649   0.385
  -3.943   3.476   0.385
  -4.158   3.275   0.385
  -4.345   3.048   0.385
  -4.503   2.800   0.385
  -4.628   2.533   0.385
  -4.719   2.254   0.385
  -4.774   1.965   0.385
  -4.793   1.671   0.385
  -4.774   1.377   0.385
  -4.719   1.088   0.385
  -2.746   4.107   0.116
  -3.037   4.054   0.116
  -3.320   3.966   0.116
  -3.590   3.844   0.116
  -3.844   3.691   0.116
  -4.077   3.508   0.116
  -4.287   3.298   0.116
  -4.470   3.065   0.116
  -4.623   2.811   0.116
  -4.745   2.541   0.116
  -4.833   2.258   0.116
  -4.886   1.967   0.116
  -4.904   1.671   0.116
  -4.886   1.375   0.116
  -2.597   4.202  -0.164
  -2.890   4.167  -0.164
  -3.177   4.099  -0.164
  -3.454   3.999  -0.164
  -3.717   3.866  -0.164
  -3.964   3.704  -0.164
  -4.189   3.515  -0.164
  -4.392   3.300  -0.164
  -4.568   3.064  -0.164
  -4.715   2.809  -0.164
  -4.832   2.538  -0.164
  -4.916   2.256  -0.164
  -4.968   1.965  -0.164
  -4.985   1.671  -0.164
  -4.968   1.377  -0.164
  -2.229   4.245  -0.452
  -2.524   4.254  -0.452
  -2.818   4.228  -0.452
  -3.107   4.170  -0.452
  -3.387   4.079  -0.452
  -3.656   3.956  -0.452
  -3.908   3.804  -0.452
  -4.142   3.624  -0.452
  -4.353   3.418  -0.452
  -4.540   3.190  -0.452
  -4.700   2.941  -0.452
  -4.830   2.677  -0.452
  -4.929   2.399  -0.452
  -4.996   2.112  -0.452
  -5.029   1.819  -0.452
  -2.159   4.255  -0.743
  -2.450   4.271  -0.743
  -2.741   4.255  -0.743
  -3.029   4.206  -0.743
  -3.309   4.125  -0.743
  -3.578   4.014  -0.743
  -3.833   3.872  -0.743
  -4.071   3.704  -0.743
  -4.288   3.509  -0.743
  -4.483   3.292  -0.743
  -4.651   3.054  -0.743
  -4.793   2.799  -0.743
  -4.904   2.530  -0.743
  -4.985   2.250  -0.743
  -5.034   1.962  -0.743
  -1.937   4.203  -1.034
  -2.229   4.245  -1.034
  -2.524   4.254  -1.034