 $system timlim=999888777
         mwords=100 $end
 $contrl exetyp=run
         runtyp=energy scftyp=rhf
         icharg=-1 mult=1 units=angs coord=unique
         maxit=50 ispher=1 qmttol=1d-6 icut=12 itol=22 $end
 $scf    dirscf=.t. diis=.t. soscf=.f.
         fdiff=.f. conv=1d-6
         npreo(1)=0,-1,1,9999 $end
 $elpot  iepot=1 where=points $end
 $basis  gbasis=n311 ngauss=6
         ndfunc=1 npfunc=1 diffsp=.t. diffs=.t. $end
 $DATA
TS1a_hfd_irc200_all_revmov.pdb
C1
P     15.0    -0.02800   0.04200  -0.03200 
O      8.0     0.05800  -0.27200   1.52600 
O      8.0     1.07700   0.64700  -0.79200 
F      9.0     0.24300  -1.55700  -0.33200 
O      8.0    -1.49700  -0.13100  -0.62200 
C      6.0    -2.15200   0.85600  -1.37700 
H      1.0    -2.46800   1.67000  -0.74900 
H      1.0    -1.50100   1.23600  -2.15600 
H      1.0    -3.00100   0.36000  -1.83600 
C      6.0     0.62700   0.60600   2.46400 
H      1.0     0.76500   0.02000   3.36800 
H      1.0     1.59400   0.95700   2.12100 
H      1.0    -0.01700   1.44900   2.64000 
O      8.0    -0.69100   1.93900   0.57200 
H      1.0    -0.08100   2.53800   0.16900 
 $END
 $POINTS
ANGS 3027
  -2.195  -1.993   1.400
   2.884  -1.063   1.058
   2.995  -1.058   0.702
   3.103  -0.700   0.702
   3.061  -1.060   0.337
  -0.217  -1.031  -3.147
   0.517  -0.902  -3.147
  -0.028  -0.692  -3.249
   0.339  -0.594  -3.249
  -1.615  -1.330   3.506
  -1.424  -1.585   3.506
  -1.194  -1.806   3.506
  -0.932  -1.987   3.506
  -2.079  -0.748   3.272
  -1.987  -1.054   3.272
  -1.851  -1.343   3.272
  -1.675  -1.610   3.272
  -1.461  -1.848   3.272
  -1.216  -2.052   3.272
  -0.943  -2.219   3.272
  -0.649  -2.344   3.272
  -0.340  -2.425   3.272
  -0.022  -2.460   3.272
  -2.308  -0.430   3.016
  -2.265  -0.744   3.016
  -2.182  -1.050   3.016
  -2.058  -1.341   3.016
  -1.897  -1.614   3.016
  -1.700  -1.862   3.016
  -1.473  -2.082   3.016
  -1.218  -2.270   3.016
  -0.940  -2.423   3.016
  -0.644  -2.536   3.016
  -0.336  -2.610   3.016
  -0.021  -2.642   3.016
   0.295  -2.631   3.016
   0.608  -2.578   3.016
  -2.445   0.044   2.741
  -2.465  -0.272   2.741
  -2.445  -0.588   2.741
  -2.385  -0.899   2.741
  -2.288  -1.201   2.741
  -2.153  -1.487   2.741
  -1.983  -1.755   2.741
  -1.781  -1.999   2.741
  -1.550  -2.216   2.741
  -1.294  -2.402   2.741
  -1.016  -2.555   2.741
  -0.722  -2.671   2.741
  -0.415  -2.750   2.741
  -0.100  -2.790   2.741
   0.216  -2.790   2.741
   0.531  -2.750   2.741
   0.838  -2.671   2.741
   1.132  -2.555   2.741
  -2.508   0.360   2.451
  -2.566   0.047   2.451
  -2.585  -0.272   2.451
  -2.566  -0.591   2.451
  -2.508  -0.904   2.451
  -2.413  -1.209   2.451
  -2.282  -1.500   2.451
  -2.117  -1.773   2.451
  -1.920  -2.025   2.451
  -1.695  -2.250   2.451
  -1.443  -2.447   2.451
  -1.170  -2.612   2.451
  -0.879  -2.743   2.451
  -0.574  -2.838   2.451
  -0.261  -2.896   2.451
   0.058  -2.915   2.451
   0.377  -2.896   2.451
   0.690  -2.838   2.451
   0.995  -2.743   2.451
   1.286  -2.612   2.451
   1.559  -2.447   2.451
  -2.598   0.358   2.149
  -2.653   0.045   2.149
  -2.672  -0.272   2.149
  -2.653  -0.589   2.149
  -2.598  -0.902   2.149
  -2.507  -1.206   2.149
  -2.381  -1.497   2.149
  -2.223  -1.772   2.149
  -2.033  -2.027   2.149
  -1.815  -2.258   2.149
  -1.572  -2.462   2.149
  -1.307  -2.636   2.149
  -1.023  -2.779   2.149
  -0.725  -2.887   2.149
  -0.416  -2.960   2.149
  -0.101  -2.997   2.149
   0.841  -2.887   2.149
   1.139  -2.779   2.149
   1.423  -2.636   2.149
   1.688  -2.462   2.149
   1.931  -2.258   2.149
  -2.684  -0.746   1.840
  -2.612  -1.056   1.840
  -2.505  -1.355   1.840
  -2.365  -1.640   1.840
  -2.193  -1.907   1.840
  -1.992  -2.153   1.840
  -1.764  -2.375   1.840
  -1.513  -2.569   1.840
  -1.240  -2.733   1.840
   1.997  -2.267   1.840
   2.212  -2.033   1.840
  -2.313  -1.762   1.526
  -2.131  -2.018   1.526
  -1.922  -2.252   1.526
   2.429  -1.762   1.526
   3.600   0.647   0.423
   3.580   0.963   0.423
   3.288  -0.568   0.423
   3.423  -0.282   0.423
   3.520   0.020   0.423
   3.580   0.331   0.423
   3.720   0.647   0.133
   3.701   0.966   0.133
   3.643   1.279   0.133
   3.548   1.584   0.133
   3.417   1.875   0.133
   3.252   2.148   0.133
   3.055   2.400   0.133
   2.830   2.625   0.133
   2.578   2.822   0.133
   3.252  -0.854   0.133
   3.417  -0.581   0.133
   3.548  -0.290   0.133
   3.643   0.015   0.133
   3.701   0.328   0.133
   3.807   0.647  -0.169
   3.788   0.964  -0.169
   3.733   1.277  -0.169
   3.642   1.581  -0.169
   3.516   1.872  -0.169
   3.358   2.147  -0.169
   3.168   2.402  -0.169
   2.950   2.633  -0.169
   2.707   2.837  -0.169
   3.168  -1.108  -0.169
   3.358  -0.853  -0.169
   3.516  -0.578  -0.169
   3.642  -0.287  -0.169
   3.733   0.017  -0.169
   3.788   0.330  -0.169
   3.859   0.647  -0.478
   3.841   0.964  -0.478
   3.787   1.277  -0.478
   3.698   1.582  -0.478
   3.574   1.875  -0.478
   3.418   2.151  -0.478
   3.231   2.408  -0.478
   3.016   2.642  -0.478
   2.776   2.850  -0.478
   2.514   3.030  -0.478
   3.231  -1.114  -0.478
   3.418  -0.857  -0.478
   3.574  -0.581  -0.478
   3.698  -0.288  -0.478
   3.787   0.017  -0.478
   3.841   0.330  -0.478
   3.877   0.647  -0.792
   3.859   0.961  -0.792
   3.807   1.270  -0.792
   3.720   1.572  -0.792
   3.600   1.862  -0.792
   3.448   2.137  -0.792
   3.266   2.393  -0.792
   3.057   2.627  -0.792
   2.823   2.836  -0.792
   2.567   3.018  -0.792
   2.292   3.170  -0.792
   3.266  -1.099  -0.792
   3.448  -0.843  -0.792
   3.600  -0.568  -0.792
   3.720  -0.278  -0.792
   3.807   0.024  -0.792
   3.859   0.333  -0.792
   3.859   0.647  -1.105
   3.841   0.964  -1.105
   3.787   1.277  -1.105
   3.698   1.582  -1.105
   3.574   1.875  -1.105
   3.418   2.151  -1.105
   3.231   2.408  -1.105
   3.016   2.642  -1.105
   2.776   2.850  -1.105
   2.514   3.030  -1.105
   2.233   3.178  -1.105
   3.016  -1.348  -1.105
   3.231  -1.114  -1.105
   3.418  -0.857  -1.105
   3.574  -0.581  -1.105
   3.698  -0.288  -1.105
   3.787   0.017  -1.105
   3.841   0.330  -1.105
   3.807   0.647  -1.415
   3.788   0.964  -1.415
   3.733   1.277  -1.415
   3.642   1.581  -1.415
   3.516   1.872  -1.415
   3.358   2.147  -1.415
   3.168   2.402  -1.415
   2.950   2.633  -1.415
   2.707   2.837  -1.415
   2.442   3.011  -1.415
   2.158   3.154  -1.415
   1.860   3.262  -1.415
   2.950  -1.339  -1.415
   3.168  -1.108  -1.415
   3.358  -0.853  -1.415
   3.516  -0.578  -1.415
   3.642  -0.287  -1.415
   3.733   0.017  -1.415
   3.788   0.330  -1.415
   3.720   0.647  -1.717
   3.701   0.966  -1.717
   3.643   1.279  -1.717
   3.548   1.584  -1.717
   3.417   1.875  -1.717
   3.252   2.148  -1.717
   3.055   2.400  -1.717
   2.830   2.625  -1.717
   2.578   2.822  -1.717
   2.305   2.987  -1.717
   2.014   3.118  -1.717
   1.709   3.213  -1.717
   2.830  -1.331  -1.717
   3.055  -1.106  -1.717
   3.252  -0.854  -1.717
   3.417  -0.581  -1.717
   3.548  -0.290  -1.717
   3.643   0.015  -1.717
   3.701   0.328  -1.717
   3.600   0.647  -2.007
   3.580   0.963  -2.007
   3.520   1.274  -2.007
   3.423   1.576  -2.007
   3.288   1.862  -2.007
   3.118   2.130  -2.007
   2.916   2.374  -2.007
   2.685   2.591  -2.007
   2.429   2.777  -2.007
   2.151   2.930  -2.007
   1.857   3.046  -2.007
   1.550   3.125  -2.007
   1.235   3.165  -2.007
   2.685  -1.297  -2.007
   2.916  -1.080  -2.007
   3.118  -0.836  -2.007
   3.288  -0.568  -2.007
   3.423  -0.282  -2.007
   3.520   0.020  -2.007
   3.580   0.331  -2.007
   3.448   0.647  -2.282
   3.427   0.963  -2.282
   3.364   1.273  -2.282
   3.260   1.573  -2.282
   3.117   1.855  -2.282
   2.938   2.116  -2.282
   2.725   2.351  -2.282
   2.483   2.556  -2.282
   2.216   2.726  -2.282
   1.929   2.859  -2.282
   1.627   2.953  -2.282
   1.314   3.006  -2.282
   0.998   3.017  -2.282
   0.683   2.985  -2.282
   2.483  -1.262  -2.282
   2.725  -1.057  -2.282
   2.938  -0.822  -2.282
   3.117  -0.561  -2.282
   3.260  -0.279  -2.282
   3.364   0.021  -2.282
   3.427   0.331  -2.282
   3.266   0.647  -2.538
   3.243   0.966  -2.538
   3.173   1.278  -2.538
   3.059   1.576  -2.538
   2.903   1.855  -2.538
   2.707   2.108  -2.538
   2.477   2.330  -2.538
   2.217   2.516  -2.538
   1.933   2.662  -2.538
   1.631   2.765  -2.538
   1.316   2.823  -2.538
   0.997   2.835  -2.538
   0.679   2.800  -2.538
   2.217  -1.222  -2.538
   2.477  -1.036  -2.538
   2.707  -0.814  -2.538
   2.903  -0.561  -2.538
   3.059  -0.282  -2.538
   3.173   0.016  -2.538
   3.243   0.328  -2.538
   3.057   0.647  -2.772
   3.031   0.965  -2.772
   2.955   1.274  -2.772
   2.830   1.567  -2.772
   2.660   1.836  -2.772
   2.449   2.075  -2.772
   2.202   2.276  -2.772
   1.926   2.436  -2.772
   1.628   2.549  -2.772
   1.316   2.612  -2.772
   0.997   2.625  -2.772
   0.681   2.587  -2.772
   1.926  -1.142  -2.772
   2.202  -0.982  -2.772
   2.449  -0.781  -2.772
   2.660  -0.542  -2.772
   2.830  -0.273  -2.772
   2.955   0.020  -2.772
   3.031   0.329  -2.772
   2.823   0.647  -2.981
   2.793   0.968  -2.981
   2.705   1.278  -2.981
   2.561   1.566  -2.981
   2.367   1.823  -2.981
   2.129   2.040  -2.981
   1.855   2.210  -2.981
   1.555   2.326  -2.981
   1.238   2.385  -2.981
   0.916   2.385  -2.981
   1.555  -1.032  -2.981
   1.855  -0.916  -2.981
   2.129  -0.746  -2.981
   2.367  -0.529  -2.981
   2.561  -0.272  -2.981
   2.705   0.016  -2.981
   2.793   0.326  -2.981
   2.567   0.647  -3.163
   2.532   0.967  -3.163
   2.429   1.273  -3.163
   2.263   1.549  -3.163
   2.041   1.782  -3.163
   1.775   1.963  -3.163
   1.476   2.082  -3.163
   1.158   2.135  -3.163
   0.836   2.117  -3.163
   0.836  -0.823  -3.163
   1.158  -0.841  -3.163
   1.476  -0.788  -3.163
   1.775  -0.669  -3.163
   2.041  -0.488  -3.163
   2.263  -0.255  -3.163
   2.429   0.021  -3.163
   2.532   0.327  -3.163
   2.292   0.647  -3.315
   2.250   0.961  -3.315
   2.129   1.254  -3.315
   1.936   1.506  -3.315
   1.684   1.699  -3.315
   1.391   1.820  -3.315
   1.077   1.862  -3.315
   0.763   1.820  -3.315
   0.470  -0.405  -3.315
   0.763  -0.526  -3.315
   1.077  -0.568  -3.315
   1.391  -0.526  -3.315
   1.684  -0.405  -3.315
   1.936  -0.212  -3.315
   2.129   0.040  -3.315
   2.250   0.333  -3.315
   2.002   0.647  -3.435
   1.946   0.963  -3.435
   1.785   1.241  -3.435
   1.539   1.448  -3.435
   1.238   1.558  -3.435
   0.916   1.558  -3.435
   0.615  -0.154  -3.435
   0.916  -0.264  -3.435
   1.238  -0.264  -3.435
   1.539  -0.154  -3.435
   1.785   0.053  -3.435
   1.946   0.331  -3.435
   1.700   0.647  -3.522
   1.617   0.959  -3.522
   1.389   1.187  -3.522
   1.077   1.270  -3.522
   0.765   1.187  -3.522
   0.537   0.335  -3.522
   0.765   0.107  -3.522
   1.077   0.024  -3.522
   1.389   0.107  -3.522
   1.617   0.335  -3.522
   1.391   0.647  -3.574
   1.234   0.919  -3.574
   0.920   0.919  -3.574
   0.763   0.647  -3.574
   0.920   0.375  -3.574
   1.234   0.375  -3.574
   1.077   0.647  -3.592
  -0.004  -3.064   2.098
   0.326  -3.082   2.098
   0.651  -3.028   2.098
   0.958  -2.906   2.098
  -0.835  -2.985   1.912
  -0.555  -3.159   1.912
  -0.247  -3.278   1.912
   0.078  -3.339   1.912
   0.408  -3.339   1.912
   0.733  -3.278   1.912
   1.041  -3.159   1.912
   1.321  -2.985   1.912
   1.565  -2.763   1.912
   1.764  -2.499   1.912
  -1.472  -2.642   1.697
  -1.276  -2.903   1.697
  -1.040  -3.129   1.697
  -0.772  -3.315   1.697
  -0.477  -3.455   1.697
  -0.163  -3.545   1.697
   0.161  -3.585   1.697
   0.488  -3.572   1.697
   0.808  -3.506   1.697
   1.113  -3.390   1.697
   1.396  -3.227   1.697
   1.649  -3.021   1.697
   1.865  -2.776   1.697
   2.040  -2.500   1.697
   2.168  -2.200   1.697
  -1.853  -2.359   1.457
  -1.714  -2.655   1.457
  -1.533  -2.928   1.457
  -1.314  -3.172   1.457
  -1.063  -3.382   1.457
  -0.783  -3.553   1.457
  -0.482  -3.681   1.457
  -0.165  -3.764   1.457
   0.161  -3.799   1.457
   0.488  -3.787   1.457
   0.811  -3.728   1.457
   1.121  -3.622   1.457
   1.412  -3.472   1.457
   1.678  -3.282   1.457
   1.914  -3.054   1.457
   2.114  -2.795   1.457
   2.275  -2.509   1.457
   2.392  -2.203   1.457
   2.463  -1.884   1.457
   2.673  -1.557   1.195
  -2.053  -2.354   1.195
  -1.926  -2.653   1.195
  -1.760  -2.932   1.195
  -1.559  -3.187   1.195
  -1.326  -3.413   1.195
  -1.065  -3.605   1.195
  -0.780  -3.761   1.195
  -0.477  -3.878   1.195
  -0.161  -3.953   1.195
   0.162  -3.986   1.195
   0.486  -3.975   1.195
   0.806  -3.921   1.195
   1.116  -3.825   1.195
   1.411  -3.688   1.195
   1.684  -3.513   1.195
   1.932  -3.304   1.195
   2.150  -3.063   1.195
   2.334  -2.795   1.195
   2.480  -2.506   1.195
   2.587  -2.199   1.195
   2.651  -1.881   1.195
   2.829  -1.557   0.913
  -2.161  -2.509   0.913
  -2.023  -2.803   0.913
  -1.849  -3.077   0.913
  -1.642  -3.327   0.913
  -1.405  -3.549   0.913
  -1.143  -3.740   0.913
  -0.858  -3.897   0.913
  -0.556  -4.016   0.913
  -0.242  -4.097   0.913
   0.081  -4.138   0.913
   0.405  -4.138   0.913
   0.728  -4.097   0.913
   1.042  -4.016   0.913
   1.344  -3.897   0.913
   1.629  -3.740   0.913
   1.891  -3.549   0.913
   2.128  -3.327   0.913
   2.335  -3.077   0.913
   2.509  -2.803   0.913
   2.647  -2.509   0.913
   2.748  -2.200   0.913
   2.808  -1.881   0.913
   2.952  -1.557   0.616
  -2.290  -2.518   0.616
  -2.156  -2.816   0.616
  -1.986  -3.096   0.616
  -1.785  -3.353   0.616
  -1.553  -3.585   0.616
  -1.296  -3.786   0.616
  -1.016  -3.956   0.616
  -0.718  -4.090   0.616
  -0.405  -4.187   0.616
  -0.084  -4.246   0.616
   0.243  -4.266   0.616
   0.570  -4.246   0.616
   0.891  -4.187   0.616
   1.204  -4.090   0.616
   1.502  -3.956   0.616
   1.782  -3.786   0.616
   2.039  -3.585   0.616
   2.271  -3.353   0.616
   2.472  -3.096   0.616
   2.642  -2.816   0.616
   2.776  -2.518   0.616
   2.873  -2.205   0.616
   2.932  -1.884   0.616
   3.041  -1.557   0.307
   3.022  -1.232   0.307
  -2.257  -2.813   0.307
  -2.095  -3.095   0.307
  -1.900  -3.356   0.307
  -1.677  -3.592   0.307
  -1.428  -3.801   0.307
  -1.156  -3.980   0.307
  -0.865  -4.126   0.307
  -0.559  -4.237   0.307
  -0.243  -4.313   0.307
   0.080  -4.350   0.307
   0.406  -4.350   0.307
   0.729  -4.313   0.307
   1.045  -4.237   0.307
   1.351  -4.126   0.307
   1.642  -3.980   0.307
   1.914  -3.801   0.307
   2.163  -3.592   0.307
   2.386  -3.356   0.307
   2.581  -3.095   0.307
   2.743  -2.813   0.307
   2.872  -2.514   0.307
   2.966  -2.202   0.307
   3.022  -1.882   0.307
   3.095  -1.557  -0.011
   3.076  -1.232  -0.011
  -2.240  -2.959  -0.011
  -2.064  -3.233  -0.011
  -1.858  -3.485  -0.011
  -1.625  -3.712  -0.011
  -1.367  -3.911  -0.011
  -1.088  -4.079  -0.011
  -0.792  -4.215  -0.011
  -0.482  -4.315  -0.011
  -0.163  -4.380  -0.011
   0.162  -4.408  -0.011
   0.487  -4.398  -0.011
   0.809  -4.352  -0.011
   1.124  -4.269  -0.011
   1.428  -4.151  -0.011
   1.716  -3.999  -0.011
   1.985  -3.815  -0.011
   2.231  -3.602  -0.011
   2.451  -3.362  -0.011
   2.642  -3.099  -0.011
   2.802  -2.815  -0.011
   2.929  -2.515  -0.011
   3.021  -2.203  -0.011
   3.076  -1.882  -0.011
   3.113  -1.557  -0.332
  -2.343  -2.802  -0.332
  -2.187  -3.084  -0.332
  -2.001  -3.346  -0.332
  -1.786  -3.586  -0.332
  -1.546  -3.801  -0.332
  -1.284  -3.987  -0.332
  -1.002  -4.143  -0.332
  -0.705  -4.266  -0.332
  -0.396  -4.355  -0.332
  -0.078  -4.409  -0.332
   0.243  -4.427  -0.332
   0.564  -4.409  -0.332
   0.882  -4.355  -0.332
   1.191  -4.266  -0.332
   1.488  -4.143  -0.332
   1.770  -3.987  -0.332
   2.032  -3.801  -0.332
   2.272  -3.586  -0.332
   2.487  -3.346  -0.332
   2.673  -3.084  -0.332
   2.829  -2.802  -0.332
   2.952  -2.505  -0.332
   3.041  -2.196  -0.332
   3.095  -1.878  -0.332
   3.095  -1.557  -0.653
  -2.240  -2.959  -0.653
  -2.064  -3.233  -0.653
  -1.858  -3.485  -0.653
  -1.625  -3.712  -0.653
  -1.367  -3.911  -0.653
  -1.088  -4.079  -0.653
  -0.792  -4.215  -0.653
  -0.482  -4.315  -0.653
  -0.163  -4.380  -0.653
   0.162  -4.408  -0.653
   0.487  -4.398  -0.653
   0.809  -4.352  -0.653
   1.124  -4.269  -0.653
   1.428  -4.151  -0.653
   1.716  -3.999  -0.653
   1.985  -3.815  -0.653
   2.231  -3.602  -0.653
   2.451  -3.362  -0.653
   2.642  -3.099  -0.653
   2.802  -2.815  -0.653
   2.929  -2.515  -0.653
   3.021  -2.203  -0.653
   3.076  -1.882  -0.653
   3.041  -1.557  -0.971
  -2.257  -2.813  -0.971
  -2.095  -3.095  -0.971
  -1.900  -3.356  -0.971
  -1.677  -3.592  -0.971
  -1.428  -3.801  -0.971
  -1.156  -3.980  -0.971
  -0.865  -4.126  -0.971
  -0.559  -4.237  -0.971
  -0.243  -4.313  -0.971
   0.080  -4.350  -0.971
   0.406  -4.350  -0.971
   0.729  -4.313  -0.971
   1.045  -4.238  -0.971
   1.351  -4.126  -0.971
   1.642  -3.980  -0.971
   1.914  -3.801  -0.971
   2.163  -3.592  -0.971
   2.386  -3.356  -0.971
   2.581  -3.095  -0.971
   2.743  -2.813  -0.971
   2.872  -2.514  -0.971
   2.966  -2.202  -0.971
   3.022  -1.882  -0.971
   2.952  -1.557  -1.280
  -2.156  -2.816  -1.280
  -1.986  -3.096  -1.280
  -1.785  -3.353  -1.280
  -1.553  -3.585  -1.280
  -1.296  -3.786  -1.280
  -1.016  -3.956  -1.280
  -0.718  -4.090  -1.280
  -0.405  -4.187  -1.280
  -0.084  -4.246  -1.280
   0.243  -4.266  -1.280
   0.570  -4.246  -1.280
   0.891  -4.187  -1.280
   1.204  -4.090  -1.280
   1.502  -3.956  -1.280
   1.782  -3.786  -1.280
   2.039  -3.585  -1.280
   2.271  -3.353  -1.280
   2.472  -3.096  -1.280
   2.642  -2.816  -1.280
   2.776  -2.518  -1.280
   2.873  -2.205  -1.280
   2.932  -1.884  -1.280
   2.829  -1.557  -1.577
  -2.023  -2.803  -1.577
  -1.849  -3.077  -1.577
  -1.642  -3.327  -1.577
  -1.405  -3.549  -1.577
  -1.143  -3.740  -1.577
  -0.858  -3.897  -1.577
  -0.556  -4.016  -1.577
  -0.242  -4.097  -1.577
   0.081  -4.138  -1.577
   0.405  -4.138  -1.577
   0.728  -4.097  -1.577
   1.042  -4.016  -1.577
   1.344  -3.897  -1.577
   1.629  -3.740  -1.577
   1.891  -3.549  -1.577
   2.128  -3.327  -1.577
   2.335  -3.077  -1.577
   2.509  -2.803  -1.577
   2.647  -2.509  -1.577
   2.748  -2.200  -1.577
   2.808  -1.881  -1.577
   2.673  -1.557  -1.859
  -1.926  -2.653  -1.859
  -1.760  -2.932  -1.859
  -1.559  -3.187  -1.859
  -1.326  -3.413  -1.859
  -1.065  -3.605  -1.859
  -0.780  -3.761  -1.859
  -0.477  -3.878  -1.859
  -0.161  -3.953  -1.859
   0.162  -3.986  -1.859
   0.486  -3.975  -1.859
   0.806  -3.921  -1.859
   1.116  -3.825  -1.859
   1.411  -3.688  -1.859
   1.684  -3.513  -1.859
   1.932  -3.304  -1.859
   2.150  -3.063  -1.859
   2.334  -2.795  -1.859
   2.480  -2.506  -1.859
   2.587  -2.199  -1.859
   2.651  -1.881  -1.859
   2.487  -1.557  -2.121
  -1.714  -2.655  -2.121
  -1.533  -2.928  -2.121
  -1.314  -3.172  -2.121
  -1.063  -3.382  -2.121
  -0.783  -3.553  -2.121
  -0.482  -3.681  -2.121
  -0.165  -3.764  -2.121
   0.161  -3.799  -2.121
   0.488  -3.787  -2.121
   0.811  -3.728  -2.121
   1.121  -3.622  -2.121
   1.412  -3.472  -2.121
   1.678  -3.282  -2.121
   1.914  -3.054  -2.121
   2.114  -2.795  -2.121
   2.275  -2.509  -2.121
   2.392  -2.203  -2.121
   2.463  -1.884  -2.121
   2.272  -1.557  -2.361
  -1.624  -2.352  -2.361
  -1.472  -2.642  -2.361
  -1.276  -2.903  -2.361
  -1.040  -3.129  -2.361
  -0.772  -3.315  -2.361
  -0.477  -3.455  -2.361
  -0.163  -3.545  -2.361
   0.161  -3.585  -2.361
   0.488  -3.572  -2.361
   0.808  -3.506  -2.361
   1.113  -3.390  -2.361
   1.396  -3.227  -2.361
   1.649  -3.021  -2.361
   1.865  -2.776  -2.361
   2.040  -2.500  -2.361
   2.168  -2.200  -2.361
   2.246  -1.883  -2.361
   2.032  -1.557  -2.576
  -1.426  -2.203  -2.576
  -1.278  -2.499  -2.576
  -1.079  -2.763  -2.576
  -0.835  -2.985  -2.576
  -0.555  -3.159  -2.576
  -0.247  -3.278  -2.576
   0.078  -3.339  -2.576
   0.408  -3.339  -2.576
   0.733  -3.278  -2.576
   1.041  -3.159  -2.576
   1.321  -2.985  -2.576
   1.565  -2.763  -2.576
   1.764  -2.499  -2.576
   1.912  -2.203  -2.576
   2.002  -1.886  -2.576
   1.770  -1.557  -2.762
  -1.204  -2.045  -2.762
  -1.065  -2.344  -2.762
  -0.866  -2.607  -2.762
  -0.614  -2.821  -2.762
  -0.322  -2.975  -2.762
  -0.004  -3.064  -2.762
   0.326  -3.082  -2.762
   0.651  -3.028  -2.762
   0.958  -2.906  -2.762
   1.232  -2.721  -2.762
   1.459  -2.481  -2.762
   1.629  -2.198  -2.762
   1.734  -1.885  -2.762
   1.488  -1.557  -2.918
   1.446  -1.235  -2.918
  -0.960  -1.879  -2.918
  -0.835  -2.180  -2.918
  -0.638  -2.438  -2.918
  -0.380  -2.635  -2.918
  -0.079  -2.760  -2.918
   0.243  -2.802  -2.918
   0.565  -2.760  -2.918
   0.866  -2.635  -2.918
   1.124  -2.438  -2.918
   1.321  -2.180  -2.918
   1.446  -1.879  -2.918
   1.191  -1.557  -3.041
   1.134  -1.233  -3.041
  -0.705  -1.557  -3.041
  -0.648  -1.881  -3.041
  -0.483  -2.166  -3.041
  -0.231  -2.378  -3.041
   0.078  -2.491  -3.041
   0.408  -2.491  -3.041
   0.717  -2.378  -3.041
   0.969  -2.166  -3.041
   1.134  -1.881  -3.041
   0.882  -1.557  -3.130
   0.796  -1.238  -3.130
   0.562  -1.004  -3.130
  -0.310  -1.238  -3.130
  -0.396  -1.557  -3.130
  -0.310  -1.876  -3.130
  -0.076  -2.110  -3.130
   0.243  -2.196  -3.130
   0.562  -2.110  -3.130
   0.796  -1.876  -3.130
   0.564  -1.557  -3.184
   0.404  -1.279  -3.184
   0.082  -1.279  -3.184
  -0.078  -1.557  -3.184
   0.082  -1.835  -3.184
   0.404  -1.835  -3.184
   0.243  -1.557  -3.202
  -2.909   0.345   1.749
  -2.978   0.030   1.749
  -2.978  -0.292   1.749
  -2.909  -0.607   1.749
  -2.773  -0.899   1.749
  -3.125   0.500   1.567
  -3.213   0.190   1.567
  -3.243  -0.131   1.567
  -3.213  -0.452   1.567
  -3.125  -0.762   1.567
  -2.981  -1.050   1.567
  -2.787  -1.307   1.567
  -2.549  -1.524   1.567
  -3.470   0.028   1.358
  -3.470  -0.290   1.358
  -3.419  -0.605   1.358
  -3.318  -0.907   1.358
  -3.170  -1.189   1.358
  -2.979  -1.444   1.358
  -2.749  -1.665   1.358
  -2.487  -1.846   1.358
  -3.680  -0.291   1.124
  -3.634  -0.607   1.124
  -3.542  -0.913   1.124
  -3.406  -1.202   1.124
  -3.230  -1.469   1.124
  -3.016  -1.707   1.124
  -2.771  -1.911   1.124
  -2.498  -2.078   1.124
  -2.204  -2.203   1.124
  -3.820  -0.603   0.868
  -3.737  -0.909   0.868
  -3.613  -1.200   0.868
  -3.452  -1.473   0.868
  -3.255  -1.721   0.868
  -3.028  -1.941   0.868
  -2.773  -2.129   0.868
  -2.495  -2.282   0.868
  -3.940  -0.758   0.593
  -3.843  -1.060   0.593
  -3.708  -1.346   0.593
  -3.538  -1.614   0.593
  -3.336  -1.858   0.593
  -3.105  -2.075   0.593
  -2.849  -2.261   0.593
  -2.571  -2.414   0.593
  -3.968  -1.068   0.303
  -3.837  -1.359   0.303
  -3.672  -1.632   0.303
  -3.475  -1.884   0.303
  -3.250  -2.109   0.303
  -2.998  -2.306   0.303
  -2.725  -2.471   0.303
  -2.434  -2.602   0.303
  -3.936  -1.356   0.001
  -3.778  -1.631   0.001
  -3.588  -1.886   0.001
  -3.370  -2.117   0.001
  -3.127  -2.321   0.001
  -2.862  -2.495   0.001
  -2.578  -2.638   0.001
  -3.748  -1.766  -0.308
  -3.547  -2.012  -0.308
  -3.319  -2.234  -0.308
  -3.068  -2.428  -0.308
  -2.795  -2.592  -0.308
  -2.506  -2.724  -0.308
  -3.686  -1.877  -0.622
  -3.477  -2.111  -0.622
  -3.243  -2.320  -0.622
  -2.987  -2.502  -0.622
  -2.712  -2.654  -0.622
  -2.422  -2.774  -0.622
  -3.319  -2.234  -0.935
  -3.068  -2.428  -0.935
  -2.795  -2.592  -0.935
  -2.506  -2.724  -0.935
  -3.127  -2.321  -1.245
  -2.862  -2.495  -1.245
  -2.578  -2.638  -1.245
  -2.280  -2.746  -1.245
  -2.998  -2.306  -1.547
  -2.725  -2.471  -1.547
  -2.434  -2.602  -1.547
  -2.129  -2.697  -1.547
  -2.849  -2.261  -1.837
  -2.571  -2.414  -1.837
  -2.277  -2.530  -1.837
  -1.970  -2.609  -1.837
  -2.495  -2.282  -2.112
  -2.199  -2.395  -2.112
  -1.891  -2.469  -2.112
  -2.204  -2.203  -2.368
  -1.895  -2.284  -2.368
  -1.893  -2.071  -2.602
  -1.577  -2.109  -2.602
  -1.658  -1.869  -2.811
  -1.336  -1.869  -2.811
  -3.451   0.508   1.416
  -3.715   0.329   1.248
  -4.052   0.501   1.047
  -3.954   0.158   1.047
  -3.795  -0.161   1.047
  -4.337   0.680   0.815
  -4.280   0.331   0.815
  -4.169  -0.003   0.815
  -4.005  -0.316   0.815
  -4.569   0.679   0.556
  -4.518   0.329   0.556
  -4.416  -0.010   0.556
  -4.266  -0.330   0.556
  -4.070  -0.625   0.556
  -4.771   0.681   0.272
  -4.724   0.333   0.272
  -4.632  -0.005   0.272
  -4.495  -0.328   0.272
  -4.316  -0.630   0.272
  -4.099  -0.905   0.272
  -4.945   0.856  -0.032
  -4.923   0.506  -0.032
  -5.057   1.209  -0.353
  -5.093   1.553  -0.687
  -5.108   1.724  -1.030
  -4.945   2.201  -1.377
  -5.078   1.880  -1.377
  -4.834   2.371  -1.724
  -4.990   2.055  -1.724
  -1.627   3.832  -2.067
  -1.976   3.873  -2.067
  -4.467   2.799  -2.067
  -4.677   2.517  -2.067
  -4.853   2.212  -2.067
  -2.152   3.782  -2.401
  -2.505   3.761  -2.401
  -2.852   3.697  -2.401
  -3.190   3.592  -2.401
  -3.512   3.447  -2.401
  -3.814   3.264  -2.401
  -4.092   3.046  -2.401
  -4.342   2.796  -2.401
  -4.560   2.518  -2.401
  -4.743   2.216  -2.401
  -2.327   3.643  -2.722
  -2.675   3.600  -2.722
  -3.015   3.512  -2.722
  -3.341   3.383  -2.722
  -3.649   3.214  -2.722
  -3.932   3.008  -2.722
  -4.188   2.768  -2.722
  -4.412   2.498  -2.722
  -1.977  -1.931  -2.722
  -2.589   3.444  -3.026
  -2.930   3.363  -3.026
  -3.257   3.237  -3.026
  -3.564   3.068  -3.026
  -3.847   2.860  -3.026
  -4.099   2.617  -3.026
  -4.316   2.342  -3.026
  -1.889  -1.756  -3.026
  -1.544  -1.697  -3.026
  -1.209  -1.593  -3.026
  -0.891  -1.446  -3.026
  -2.935   3.150  -3.310
  -3.260   3.011  -3.310
  -3.562   2.827  -3.310
  -3.834   2.601  -3.310
  -4.070   2.337  -3.310
  -1.887  -1.553  -3.310
  -1.539  -1.489  -3.310
  -1.204  -1.375  -3.310
  -0.889  -1.213  -3.310
  -0.602  -1.007  -3.310
  -2.929   2.906  -3.569
  -3.248   2.754  -3.569
  -3.538   2.554  -3.569
  -3.793   2.310  -3.569
  -4.005   2.028  -3.569
  -1.888  -1.320  -3.569
  -1.542  -1.249  -3.569
  -1.212  -1.124  -3.569
  -0.907  -0.948  -3.569
  -3.014   2.586  -3.801
  -3.317   2.398  -3.801
  -3.580   2.158  -3.801
  -3.795   1.874  -3.801
  -1.974  -1.069  -3.801
  -1.623  -1.003  -3.801
  -1.290  -0.874  -3.801
  -3.078   2.221  -4.002
  -3.349   1.990  -4.002
  -3.565   1.706  -4.002
  -2.063  -0.791  -4.002
  -1.711  -0.733  -4.002
  -1.379  -0.601  -4.002
  -3.103   1.807  -4.170
  -3.317   1.529  -4.170
  -2.152  -0.489  -4.170
  -1.804  -0.443  -4.170
  -3.114   1.206  -4.303
  -2.330  -0.152  -4.303
  -1.974  -0.152  -4.303
  -2.842   0.856  -4.399
  -2.497   0.259  -4.399
  -3.275   1.964   1.705
  -3.327   1.670   1.705
  -3.275   1.376   1.705
  -3.126   1.118   1.705
  -3.266   2.468   1.594
  -3.445   2.234   1.594
  -3.558   1.962   1.594
  -3.596   1.670   1.594
  -3.558   1.378   1.594
  -3.445   1.106   1.594
  -3.266   0.872   1.594
  -3.032   0.693   1.594
  -3.244   2.815   1.452
  -3.472   2.621   1.452
  -3.653   2.383   1.452
  -3.779   2.112   1.452
  -3.843   1.820   1.452
  -3.843   1.520   1.452
  -3.779   1.228   1.452
  -3.653   0.957   1.452
  -3.472   0.719   1.452
  -3.191   3.121   1.284
  -3.445   2.964   1.284
  -3.666   2.762   1.284
  -3.846   2.523   1.284
  -3.980   2.256   1.284
  -4.061   1.968   1.284
  -4.089   1.670   1.284
  -4.061   1.372   1.284
  -3.980   1.084   1.284
  -3.846   0.817   1.284
  -3.120   3.389   1.089
  -3.387   3.262   1.089
  -3.631   3.094   1.089
  -3.844   2.889   1.089
  -4.022   2.653   1.089
  -4.159   2.391   1.089
  -4.253   2.110   1.089
  -4.301   1.818   1.089
  -4.301   1.522   1.089
  -4.253   1.230   1.089
  -4.159   0.949   1.089
  -3.124   3.594   0.872
  -3.397   3.478   0.872
  -3.651   3.323   0.872
  -3.879   3.133   0.872
  -4.077   2.912   0.872
  -4.241   2.665   0.872
  -4.367   2.396   0.872
  -4.452   2.112   0.872
  -4.495   1.818   0.872
  -4.495   1.522   0.872
  -4.452   1.228   0.872
  -4.367   0.944   0.872
  -2.834   3.841   0.634
  -3.120   3.773   0.634
  -3.395   3.667   0.634
  -3.653   3.526   0.634
  -3.889   3.351   0.634
  -4.101   3.147   0.634
  -4.283   2.916   0.634
  -4.433   2.663   0.634
  -4.548   2.392   0.634
  -4.625   2.109   0.634
  -4.665   1.817   0.634
  -4.665   1.523   0.634
  -4.625   1.232   0.634
  -4.548   0.948   0.634
  -2.615   4.008   0.379
  -2.907   3.971   0.379
  -3.192   3.898   0.379
  -3.465   3.790   0.379
  -3.723   3.648   0.379
  -3.961   3.475   0.379
  -4.176   3.274   0.379
  -4.363   3.047   0.379
  -4.521   2.799   0.379
  -4.646   2.532   0.379
  -4.737   2.253   0.379
  -4.792   1.964   0.379
  -4.811   1.670   0.379
  -4.792   1.376   0.379
  -4.737   1.087   0.379
  -2.468   4.124   0.110
  -2.764   4.106   0.110
  -3.055   4.053   0.110
  -3.338   3.965   0.110
  -3.608   3.843   0.110
  -3.862   3.690   0.110
  -4.095   3.507   0.110
  -4.305   3.297   0.110
  -4.488   3.064   0.110
  -4.641   2.810   0.110
  -4.763   2.540   0.110
  -4.851   2.257   0.110
  -4.904   1.966   0.110
  -4.922   1.670   0.110
  -4.904   1.374   0.110
  -2.321   4.201  -0.170
  -2.615   4.201  -0.170
  -2.908   4.166  -0.170
  -3.195   4.098  -0.170
  -3.472   3.998  -0.170
  -3.735   3.865  -0.170
  -3.982   3.703  -0.170
  -4.207   3.514  -0.170
  -4.410   3.299  -0.170
  -4.586   3.063  -0.170
  -4.733   2.808  -0.170
  -4.850   2.537  -0.170
  -4.934   2.255  -0.170
  -4.986   1.964  -0.170
  -5.003   1.670  -0.170
  -4.986   1.376  -0.170
  -2.247   4.244  -0.458
  -2.542   4.253  -0.458
  -2.836   4.227  -0.458
  -3.125   4.169  -0.458
  -3.405   4.078  -0.458
  -3.674   3.955  -0.458
  -3.926   3.803  -0.458
  -4.160   3.623  -0.458
  -4.371   3.417  -0.458
  -4.558   3.189  -0.458
  -4.718   2.940  -0.458
  -4.848   2.676  -0.458
  -4.947   2.398  -0.458
  -5.014   2.111  -0.458
  -5.047   1.818  -0.458
  -5.047   1.523  -0.458
  -1.889   4.205  -0.749
  -2.177   4.254  -0.749
  -2.468   4.270  -0.749
  -2.759   4.254  -0.749
  -3.047   4.205  -0.749
  -3.327   4.124  -0.749
  -3.596   4.013  -0.749
  -3.851   3.871  -0.749
  -4.089   3.703  -0.749
  -4.306   3.508  -0.749
  -4.501   3.291  -0.749