 $system timlim=999888777
         mwords=100 $end
 $contrl exetyp=run
         runtyp=energy scftyp=rhf
         icharg=-1 mult=1 units=angs coord=unique
         maxit=50 ispher=1 qmttol=1d-6 icut=12 itol=22 $end
 $scf    dirscf=.t. diis=.t. soscf=.f.
         fdiff=.f. conv=1d-6
         npreo(1)=0,-1,1,9999 $end
 $elpot  iepot=1 where=points $end
 $basis  gbasis=n311 ngauss=6
         ndfunc=1 npfunc=1 diffsp=.t. diffs=.t. $end
 $DATA
TS1a_hfd_irc200_all_revmov.pdb
C1
P     15.0    -0.01800   0.07200  -0.04200 
O      8.0     0.10300  -0.26800   1.52100 
O      8.0     1.10300   0.60800  -0.84300 
F      9.0     0.22400  -1.55200  -0.32800 
O      8.0    -1.49800  -0.12800  -0.62400 
C      6.0    -2.15200   0.85600  -1.37700 
H      1.0    -2.48000   1.67100  -0.75300 
H      1.0    -1.50200   1.24300  -2.15500 
H      1.0    -3.00000   0.36300  -1.84100 
C      6.0     0.69600   0.60800   2.43900 
H      1.0     0.86700   0.02500   3.34000 
H      1.0     1.65000   0.96800   2.06900 
H      1.0     0.05700   1.44900   2.64700 
O      8.0    -0.59500   1.85300   0.50500 
H      1.0     0.01600   2.44300   0.08700 
 $END
 $POINTS
ANGS 3030
  -2.185  -1.963   1.390
   2.740  -1.376   1.048
   3.005  -1.028   0.692
   3.071  -1.030   0.327
  -0.207  -1.001  -3.157
   0.171  -1.001  -3.157
   0.527  -0.872  -3.157
  -0.018  -0.662  -3.259
  -1.718  -1.044   3.501
  -1.570  -1.326   3.501
  -1.379  -1.581   3.501
  -1.149  -1.802   3.501
  -0.887  -1.983   3.501
  -0.599  -2.119   3.501
  -2.034  -0.744   3.267
  -1.942  -1.050   3.267
  -1.806  -1.339   3.267
  -1.630  -1.606   3.267
  -1.416  -1.844   3.267
  -1.171  -2.048   3.267
  -0.898  -2.215   3.267
  -0.604  -2.340   3.267
  -0.295  -2.421   3.267
   0.023  -2.456   3.267
  -2.263  -0.426   3.011
  -2.220  -0.740   3.011
  -2.137  -1.046   3.011
  -2.013  -1.337   3.011
  -1.852  -1.610   3.011
  -1.655  -1.858   3.011
  -1.428  -2.078   3.011
  -1.173  -2.266   3.011
  -0.895  -2.419   3.011
  -0.599  -2.532   3.011
  -0.291  -2.606   3.011
   0.024  -2.638   3.011
   0.340  -2.627   3.011
   0.653  -2.574   3.011
  -2.400   0.048   2.736
  -2.420  -0.268   2.736
  -2.400  -0.584   2.736
  -2.340  -0.895   2.736
  -2.243  -1.197   2.736
  -2.108  -1.483   2.736
  -1.938  -1.751   2.736
  -1.736  -1.995   2.736
  -1.505  -2.212   2.736
  -1.249  -2.398   2.736
  -0.971  -2.551   2.736
  -0.677  -2.667   2.736
  -0.370  -2.746   2.736
  -0.055  -2.786   2.736
   0.261  -2.786   2.736
   0.576  -2.746   2.736
   0.883  -2.667   2.736
   1.177  -2.551   2.736
  -2.463   0.364   2.446
  -2.521   0.051   2.446
  -2.540  -0.268   2.446
  -2.521  -0.587   2.446
  -2.463  -0.900   2.446
  -2.368  -1.205   2.446
  -2.237  -1.496   2.446
  -2.072  -1.769   2.446
  -1.875  -2.021   2.446
  -1.650  -2.246   2.446
  -1.398  -2.443   2.446
  -1.125  -2.608   2.446
  -0.834  -2.739   2.446
  -0.529  -2.834   2.446
  -0.216  -2.892   2.446
   0.103  -2.911   2.446
   0.422  -2.892   2.446
   0.735  -2.834   2.446
   1.040  -2.739   2.446
   1.331  -2.608   2.446
   1.604  -2.443   2.446
  -2.553   0.362   2.144
  -2.608   0.049   2.144
  -2.627  -0.268   2.144
  -2.608  -0.585   2.144
  -2.553  -0.898   2.144
  -2.462  -1.202   2.144
  -2.336  -1.493   2.144
  -2.178  -1.768   2.144
  -1.988  -2.023   2.144
  -1.770  -2.254   2.144
  -1.527  -2.458   2.144
  -1.262  -2.632   2.144
  -0.978  -2.775   2.144
  -0.680  -2.883   2.144
  -0.371  -2.956   2.144
  -0.056  -2.993   2.144
   0.886  -2.883   2.144
   1.184  -2.775   2.144
   1.468  -2.632   2.144
   1.733  -2.458   2.144
   1.976  -2.254   2.144
  -2.567  -1.052   1.835
  -2.460  -1.351   1.835
  -2.320  -1.636   1.835
  -2.148  -1.903   1.835
  -1.947  -2.149   1.835
  -1.719  -2.371   1.835
  -1.468  -2.565   1.835
   2.042  -2.263   1.835
   2.257  -2.029   1.835
  -2.086  -2.014   1.521
  -1.877  -2.248   1.521
   3.626   0.608   0.372
   3.144  -0.875   0.372
   3.314  -0.607   0.372
   3.449  -0.321   0.372
   3.546  -0.019   0.372
   3.606   0.292   0.372
   3.746   0.608   0.082
   3.727   0.927   0.082
   3.669   1.240   0.082
   3.574   1.545   0.082
   3.443   1.836   0.082
   3.278   2.109   0.082
   3.081   2.361   0.082
   2.856   2.586   0.082
   2.604   2.783   0.082
   3.081  -1.145   0.082
   3.278  -0.893   0.082
   3.443  -0.620   0.082
   3.574  -0.329   0.082
   3.669  -0.024   0.082
   3.727   0.289   0.082
   3.833   0.608  -0.220
   3.814   0.925  -0.220
   3.759   1.238  -0.220
   3.668   1.542  -0.220
   3.542   1.833  -0.220
   3.384   2.108  -0.220
   3.194   2.363  -0.220
   2.976   2.594  -0.220
   2.733   2.798  -0.220
   3.194  -1.147  -0.220
   3.384  -0.892  -0.220
   3.542  -0.617  -0.220
   3.668  -0.326  -0.220
   3.759  -0.022  -0.220
   3.814   0.291  -0.220
   3.885   0.608  -0.529
   3.867   0.925  -0.529
   3.813   1.238  -0.529
   3.724   1.543  -0.529
   3.600   1.836  -0.529
   3.444   2.112  -0.529
   3.257   2.369  -0.529
   3.042   2.603  -0.529
   2.802   2.811  -0.529
   2.540   2.991  -0.529
   3.257  -1.153  -0.529
   3.444  -0.896  -0.529
   3.600  -0.620  -0.529
   3.724  -0.327  -0.529
   3.813  -0.022  -0.529
   3.867   0.291  -0.529
   3.903   0.608  -0.843
   3.885   0.922  -0.843
   3.833   1.231  -0.843
   3.746   1.533  -0.843
   3.626   1.823  -0.843
   3.474   2.098  -0.843
   3.292   2.354  -0.843
   3.083   2.588  -0.843
   2.849   2.797  -0.843
   2.593   2.979  -0.843
   3.083  -1.372  -0.843
   3.292  -1.138  -0.843
   3.474  -0.882  -0.843
   3.626  -0.607  -0.843
   3.746  -0.317  -0.843
   3.833  -0.015  -0.843
   3.885   0.294  -0.843
   3.885   0.608  -1.156
   3.867   0.925  -1.156
   3.813   1.238  -1.156
   3.724   1.543  -1.156
   3.600   1.836  -1.156
   3.444   2.112  -1.156
   3.257   2.369  -1.156
   3.042   2.603  -1.156
   2.802   2.811  -1.156
   2.540   2.991  -1.156
   2.259   3.139  -1.156
   3.042  -1.387  -1.156
   3.257  -1.153  -1.156
   3.444  -0.896  -1.156
   3.600  -0.620  -1.156
   3.724  -0.327  -1.156
   3.813  -0.022  -1.156
   3.867   0.291  -1.156
   3.833   0.608  -1.466
   3.814   0.925  -1.466
   3.759   1.238  -1.466
   3.668   1.542  -1.466
   3.542   1.833  -1.466
   3.384   2.108  -1.466
   3.194   2.363  -1.466
   2.976   2.594  -1.466
   2.733   2.798  -1.466
   2.468   2.972  -1.466
   2.184   3.115  -1.466
   2.976  -1.378  -1.466
   3.194  -1.147  -1.466
   3.384  -0.892  -1.466
   3.542  -0.617  -1.466
   3.668  -0.326  -1.466
   3.759  -0.022  -1.466
   3.814   0.291  -1.466
   3.746   0.608  -1.768
   3.727   0.927  -1.768
   3.669   1.240  -1.768
   3.574   1.545  -1.768
   3.443   1.836  -1.768
   3.278   2.109  -1.768
   3.081   2.361  -1.768
   2.856   2.586  -1.768
   2.604   2.783  -1.768
   2.331   2.948  -1.768
   2.040   3.079  -1.768
   1.735   3.174  -1.768
   2.856  -1.370  -1.768
   3.081  -1.145  -1.768
   3.278  -0.893  -1.768
   3.443  -0.620  -1.768
   3.574  -0.329  -1.768
   3.669  -0.024  -1.768
   3.727   0.289  -1.768
   3.626   0.608  -2.058
   3.606   0.924  -2.058
   3.546   1.235  -2.058
   3.449   1.537  -2.058
   3.314   1.823  -2.058
   3.144   2.091  -2.058
   2.942   2.335  -2.058
   2.711   2.552  -2.058
   2.455   2.738  -2.058
   2.177   2.891  -2.058
   1.883   3.007  -2.058
   1.576   3.086  -2.058
   2.711  -1.336  -2.058
   2.942  -1.119  -2.058
   3.144  -0.875  -2.058
   3.314  -0.607  -2.058
   3.449  -0.321  -2.058
   3.546  -0.019  -2.058
   3.606   0.292  -2.058
   3.474   0.608  -2.333
   3.453   0.924  -2.333
   3.390   1.234  -2.333
   3.286   1.534  -2.333
   3.143   1.816  -2.333
   2.964   2.077  -2.333
   2.751   2.312  -2.333
   2.509   2.517  -2.333
   2.242   2.687  -2.333
   1.955   2.820  -2.333
   1.653   2.914  -2.333
   1.340   2.967  -2.333
   1.024   2.978  -2.333
   2.509  -1.301  -2.333
   2.751  -1.096  -2.333
   2.964  -0.861  -2.333
   3.143  -0.600  -2.333
   3.286  -0.318  -2.333
   3.390  -0.018  -2.333
   3.453   0.292  -2.333
   3.292   0.608  -2.589
   3.269   0.927  -2.589
   3.199   1.239  -2.589
   3.085   1.537  -2.589
   2.929   1.816  -2.589
   2.733   2.069  -2.589
   2.503   2.291  -2.589
   2.243   2.477  -2.589
   1.959   2.623  -2.589
   1.657   2.726  -2.589
   1.342   2.784  -2.589
   1.023   2.796  -2.589
   0.705   2.761  -2.589
   2.243  -1.261  -2.589
   2.503  -1.075  -2.589
   2.733  -0.853  -2.589
   2.929  -0.600  -2.589
   3.085  -0.321  -2.589
   3.199  -0.023  -2.589
   3.269   0.289  -2.589
   3.083   0.608  -2.823
   3.057   0.926  -2.823
   2.981   1.235  -2.823
   2.856   1.528  -2.823
   2.686   1.797  -2.823
   2.475   2.036  -2.823
   2.228   2.237  -2.823
   1.952   2.397  -2.823
   1.654   2.510  -2.823
   1.342   2.573  -2.823
   1.023   2.586  -2.823
   0.707   2.548  -2.823
   1.654  -1.294  -2.823
   1.952  -1.181  -2.823
   2.228  -1.021  -2.823
   2.475  -0.820  -2.823
   2.686  -0.581  -2.823
   2.856  -0.312  -2.823
   2.981  -0.019  -2.823
   3.057   0.290  -2.823
   2.849   0.608  -3.032
   2.819   0.929  -3.032
   2.731   1.239  -3.032
   2.587   1.527  -3.032
   2.393   1.784  -3.032
   2.155   2.001  -3.032
   1.881   2.171  -3.032
   1.581   2.287  -3.032
   1.264   2.346  -3.032
   0.942   2.346  -3.032
   1.264  -1.130  -3.032
   1.581  -1.071  -3.032
   1.881  -0.955  -3.032
   2.155  -0.785  -3.032
   2.393  -0.568  -3.032
   2.587  -0.311  -3.032
   2.731  -0.023  -3.032
   2.819   0.287  -3.032
   2.593   0.608  -3.214
   2.558   0.928  -3.214
   2.455   1.234  -3.214
   2.289   1.510  -3.214
   2.067   1.743  -3.214
   1.801   1.924  -3.214
   1.502   2.043  -3.214
   1.184   2.096  -3.214
   0.862   2.078  -3.214
   0.552  -0.776  -3.214
   0.862  -0.862  -3.214
   1.184  -0.880  -3.214
   1.502  -0.827  -3.214
   1.801  -0.708  -3.214
   2.067  -0.527  -3.214
   2.289  -0.294  -3.214
   2.455  -0.018  -3.214
   2.558   0.288  -3.214
   2.318   0.608  -3.366
   2.276   0.922  -3.366
   2.155   1.215  -3.366
   1.962   1.467  -3.366
   1.710   1.660  -3.366
   1.417   1.781  -3.366
   1.103   1.823  -3.366
   0.789   1.781  -3.366
   0.496  -0.444  -3.366
   0.789  -0.565  -3.366
   1.103  -0.607  -3.366
   1.417  -0.565  -3.366
   1.710  -0.444  -3.366
   1.962  -0.251  -3.366
   2.155   0.001  -3.366
   2.276   0.294  -3.366
   2.028   0.608  -3.486
   1.972   0.924  -3.486
   1.811   1.202  -3.486
   1.565   1.409  -3.486
   1.264   1.519  -3.486
   0.942   1.519  -3.486
   0.395   0.014  -3.486
   0.641  -0.193  -3.486
   0.942  -0.303  -3.486
   1.264  -0.303  -3.486
   1.565  -0.193  -3.486
   1.811   0.014  -3.486
   1.972   0.292  -3.486
   1.726   0.608  -3.573
   1.643   0.920  -3.573
   1.415   1.148  -3.573
   1.103   1.231  -3.573
   0.791   1.148  -3.573
   0.563   0.296  -3.573
   0.791   0.068  -3.573
   1.103  -0.015  -3.573
   1.415   0.068  -3.573
   1.643   0.296  -3.573
   1.417   0.608  -3.625
   1.260   0.880  -3.625
   0.946   0.880  -3.625
   0.789   0.608  -3.625
   0.946   0.336  -3.625
   1.260   0.336  -3.625
   1.103   0.608  -3.643
  -0.023  -3.059   2.102
   0.307  -3.077   2.102
   0.632  -3.023   2.102
   0.939  -2.901   2.102
  -0.854  -2.980   1.916
  -0.574  -3.154   1.916
  -0.266  -3.273   1.916
   0.059  -3.334   1.916
   0.389  -3.334   1.916
   0.714  -3.273   1.916
   1.022  -3.154   1.916
   1.302  -2.980   1.916
   1.546  -2.758   1.916
  -1.491  -2.637   1.701
  -1.295  -2.898   1.701
  -1.059  -3.124   1.701
  -0.791  -3.310   1.701
  -0.496  -3.450   1.701
  -0.182  -3.540   1.701
   0.142  -3.580   1.701
   0.469  -3.567   1.701
   0.789  -3.501   1.701
   1.094  -3.385   1.701
   1.377  -3.222   1.701
   1.630  -3.016   1.701
   1.846  -2.771   1.701
   2.021  -2.495   1.701
   2.149  -2.195   1.701
  -1.872  -2.354   1.461
  -1.733  -2.650   1.461
  -1.552  -2.923   1.461
  -1.333  -3.167   1.461
  -1.082  -3.377   1.461
  -0.802  -3.548   1.461
  -0.501  -3.676   1.461
  -0.184  -3.759   1.461
   0.142  -3.794   1.461
   0.469  -3.782   1.461
   0.792  -3.723   1.461
   1.102  -3.617   1.461
   1.393  -3.467   1.461
   1.659  -3.277   1.461
   1.895  -3.049   1.461
   2.095  -2.790   1.461
   2.256  -2.504   1.461
   2.373  -2.198   1.461
   2.444  -1.879   1.461
   2.654  -1.552   1.199
  -2.072  -2.349   1.199
  -1.945  -2.648   1.199
  -1.779  -2.927   1.199
  -1.578  -3.182   1.199
  -1.345  -3.408   1.199
  -1.084  -3.600   1.199
  -0.799  -3.756   1.199
  -0.496  -3.873   1.199
  -0.180  -3.948   1.199
   0.143  -3.981   1.199
   0.467  -3.970   1.199
   0.787  -3.916   1.199
   1.097  -3.820   1.199
   1.392  -3.683   1.199
   1.665  -3.508   1.199
   1.913  -3.299   1.199
   2.131  -3.058   1.199
   2.315  -2.790   1.199
   2.461  -2.501   1.199
   2.568  -2.194   1.199
   2.632  -1.876   1.199
   2.810  -1.552   0.917
  -2.180  -2.504   0.917
  -2.042  -2.798   0.917
  -1.868  -3.072   0.917
  -1.661  -3.322   0.917
  -1.424  -3.544   0.917
  -1.162  -3.735   0.917
  -0.877  -3.892   0.917
  -0.575  -4.011   0.917
  -0.261  -4.092   0.917
   0.062  -4.133   0.917
   0.386  -4.133   0.917
   0.709  -4.092   0.917
   1.023  -4.011   0.917
   1.325  -3.892   0.917
   1.610  -3.735   0.917
   1.872  -3.544   0.917
   2.109  -3.322   0.917
   2.316  -3.072   0.917
   2.490  -2.798   0.917
   2.628  -2.504   0.917
   2.729  -2.195   0.917
   2.789  -1.876   0.917
   2.933  -1.552   0.620
  -2.309  -2.513   0.620
  -2.175  -2.811   0.620
  -2.005  -3.091   0.620
  -1.804  -3.348   0.620
  -1.572  -3.580   0.620
  -1.315  -3.781   0.620
  -1.035  -3.951   0.620
  -0.737  -4.085   0.620
  -0.424  -4.182   0.620
  -0.103  -4.241   0.620
   0.224  -4.261   0.620
   0.551  -4.241   0.620
   0.872  -4.182   0.620
   1.185  -4.085   0.620
   1.483  -3.951   0.620
   1.763  -3.781   0.620
   2.020  -3.580   0.620
   2.252  -3.348   0.620
   2.453  -3.091   0.620
   2.623  -2.811   0.620
   2.757  -2.513   0.620
   2.854  -2.200   0.620
   2.913  -1.879   0.620
   3.022  -1.552   0.311
   3.003  -1.227   0.311
  -2.276  -2.808   0.311
  -2.114  -3.090   0.311
  -1.919  -3.351   0.311
  -1.696  -3.587   0.311
  -1.447  -3.796   0.311
  -1.175  -3.975   0.311
  -0.884  -4.121   0.311
  -0.578  -4.232   0.311
  -0.262  -4.308   0.311
   0.061  -4.345   0.311
   0.387  -4.345   0.311
   0.710  -4.308   0.311
   1.026  -4.232   0.311
   1.332  -4.121   0.311
   1.623  -3.975   0.311
   1.895  -3.796   0.311
   2.144  -3.587   0.311
   2.367  -3.351   0.311
   2.562  -3.090   0.311
   2.724  -2.808   0.311
   2.853  -2.509   0.311
   2.947  -2.197   0.311
   3.003  -1.877   0.311
   3.076  -1.552  -0.007
   3.057  -1.227  -0.007
  -2.259  -2.954  -0.007
  -2.083  -3.228  -0.007
  -1.877  -3.480  -0.007
  -1.644  -3.707  -0.007
  -1.386  -3.906  -0.007
  -1.107  -4.074  -0.007
  -0.811  -4.210  -0.007
  -0.501  -4.310  -0.007
  -0.182  -4.375  -0.007
   0.143  -4.403  -0.007
   0.468  -4.393  -0.007
   0.790  -4.347  -0.007
   1.105  -4.264  -0.007
   1.409  -4.146  -0.007
   1.697  -3.994  -0.007
   1.966  -3.810  -0.007
   2.212  -3.597  -0.007
   2.432  -3.357  -0.007
   2.623  -3.094  -0.007
   2.783  -2.810  -0.007
   2.910  -2.510  -0.007
   3.002  -2.198  -0.007
   3.057  -1.877  -0.007
   3.094  -1.552  -0.328
  -2.362  -2.797  -0.328
  -2.206  -3.079  -0.328
  -2.020  -3.341  -0.328
  -1.805  -3.581  -0.328
  -1.565  -3.796  -0.328
  -1.303  -3.982  -0.328
  -1.021  -4.138  -0.328
  -0.724  -4.261  -0.328
  -0.415  -4.350  -0.328
  -0.097  -4.404  -0.328
   0.224  -4.422  -0.328
   0.545  -4.404  -0.328
   0.863  -4.350  -0.328
   1.172  -4.261  -0.328
   1.469  -4.138  -0.328
   1.751  -3.982  -0.328
   2.013  -3.796  -0.328
   2.253  -3.581  -0.328
   2.468  -3.341  -0.328
   2.654  -3.079  -0.328
   2.810  -2.797  -0.328
   2.933  -2.500  -0.328
   3.022  -2.191  -0.328
   3.076  -1.873  -0.328
   3.076  -1.552  -0.649
  -2.259  -2.954  -0.649
  -2.083  -3.228  -0.649
  -1.877  -3.480  -0.649
  -1.644  -3.707  -0.649
  -1.386  -3.906  -0.649
  -1.107  -4.074  -0.649
  -0.811  -4.210  -0.649
  -0.501  -4.310  -0.649
  -0.182  -4.375  -0.649
   0.143  -4.403  -0.649
   0.468  -4.393  -0.649
   0.790  -4.347  -0.649
   1.105  -4.264  -0.649
   1.409  -4.146  -0.649
   1.697  -3.994  -0.649
   1.966  -3.810  -0.649
   2.212  -3.597  -0.649
   2.432  -3.357  -0.649
   2.623  -3.094  -0.649
   2.783  -2.810  -0.649
   2.910  -2.510  -0.649
   3.002  -2.198  -0.649
   3.057  -1.877  -0.649
   3.022  -1.552  -0.967
  -2.276  -2.808  -0.967
  -2.114  -3.090  -0.967
  -1.919  -3.351  -0.967
  -1.696  -3.587  -0.967
  -1.447  -3.796  -0.967
  -1.175  -3.975  -0.967
  -0.884  -4.121  -0.967
  -0.578  -4.232  -0.967
  -0.262  -4.308  -0.967
   0.061  -4.345  -0.967
   0.387  -4.345  -0.967
   0.710  -4.308  -0.967
   1.026  -4.233  -0.967
   1.332  -4.121  -0.967
   1.623  -3.975  -0.967
   1.895  -3.796  -0.967
   2.144  -3.587  -0.967
   2.367  -3.351  -0.967
   2.562  -3.090  -0.967
   2.724  -2.808  -0.967
   2.853  -2.509  -0.967
   2.947  -2.197  -0.967
   3.003  -1.877  -0.967
   2.933  -1.552  -1.276
  -2.175  -2.811  -1.276
  -2.005  -3.091  -1.276
  -1.804  -3.348  -1.276
  -1.572  -3.580  -1.276
  -1.315  -3.781  -1.276
  -1.035  -3.951  -1.276
  -0.737  -4.085  -1.276
  -0.424  -4.182  -1.276
  -0.103  -4.241  -1.276
   0.224  -4.261  -1.276
   0.551  -4.241  -1.276
   0.872  -4.182  -1.276
   1.185  -4.085  -1.276
   1.483  -3.951  -1.276
   1.763  -3.781  -1.276
   2.020  -3.580  -1.276
   2.252  -3.348  -1.276
   2.453  -3.091  -1.276
   2.623  -2.811  -1.276
   2.757  -2.513  -1.276
   2.854  -2.200  -1.276
   2.913  -1.879  -1.276
   2.810  -1.552  -1.573
  -2.042  -2.798  -1.573
  -1.868  -3.072  -1.573
  -1.661  -3.322  -1.573
  -1.424  -3.544  -1.573
  -1.162  -3.735  -1.573
  -0.877  -3.892  -1.573
  -0.575  -4.011  -1.573
  -0.261  -4.092  -1.573
   0.062  -4.133  -1.573
   0.386  -4.133  -1.573
   0.709  -4.092  -1.573
   1.023  -4.011  -1.573
   1.325  -3.892  -1.573
   1.610  -3.735  -1.573
   1.872  -3.544  -1.573
   2.109  -3.322  -1.573
   2.316  -3.072  -1.573
   2.490  -2.798  -1.573
   2.628  -2.504  -1.573
   2.729  -2.195  -1.573
   2.789  -1.876  -1.573
   2.654  -1.552  -1.855
  -1.945  -2.648  -1.855
  -1.779  -2.927  -1.855
  -1.578  -3.182  -1.855
  -1.345  -3.408  -1.855
  -1.084  -3.600  -1.855
  -0.799  -3.756  -1.855
  -0.496  -3.873  -1.855
  -0.180  -3.948  -1.855
   0.143  -3.981  -1.855
   0.467  -3.970  -1.855
   0.787  -3.916  -1.855
   1.097  -3.820  -1.855
   1.392  -3.683  -1.855
   1.665  -3.508  -1.855
   1.913  -3.299  -1.855
   2.131  -3.058  -1.855
   2.315  -2.790  -1.855
   2.461  -2.501  -1.855
   2.568  -2.194  -1.855
   2.632  -1.876  -1.855
   2.468  -1.552  -2.117
  -1.733  -2.650  -2.117
  -1.552  -2.923  -2.117
  -1.333  -3.167  -2.117
  -1.082  -3.377  -2.117
  -0.802  -3.548  -2.117
  -0.501  -3.676  -2.117
  -0.184  -3.759  -2.117
   0.142  -3.794  -2.117
   0.469  -3.782  -2.117
   0.792  -3.723  -2.117
   1.102  -3.617  -2.117
   1.393  -3.467  -2.117
   1.659  -3.277  -2.117
   1.895  -3.049  -2.117
   2.095  -2.790  -2.117
   2.256  -2.504  -2.117
   2.373  -2.198  -2.117
   2.444  -1.879  -2.117
   2.253  -1.552  -2.357
  -1.643  -2.347  -2.357
  -1.491  -2.637  -2.357
  -1.295  -2.898  -2.357
  -1.059  -3.124  -2.357
  -0.791  -3.310  -2.357
  -0.496  -3.450  -2.357
  -0.182  -3.540  -2.357
   0.142  -3.580  -2.357
   0.469  -3.567  -2.357
   0.789  -3.501  -2.357
   1.094  -3.385  -2.357
   1.377  -3.222  -2.357
   1.630  -3.016  -2.357
   1.846  -2.771  -2.357
   2.021  -2.495  -2.357
   2.149  -2.195  -2.357
   2.227  -1.878  -2.357
   2.013  -1.552  -2.572
  -1.445  -2.198  -2.572
  -1.297  -2.494  -2.572
  -1.098  -2.758  -2.572
  -0.854  -2.980  -2.572
  -0.574  -3.154  -2.572
  -0.266  -3.273  -2.572
   0.059  -3.334  -2.572
   0.389  -3.334  -2.572
   0.714  -3.273  -2.572
   1.022  -3.154  -2.572
   1.302  -2.980  -2.572
   1.546  -2.758  -2.572
   1.745  -2.494  -2.572
   1.893  -2.198  -2.572
   1.983  -1.881  -2.572
   1.751  -1.552  -2.758
  -1.223  -2.040  -2.758
  -1.084  -2.339  -2.758
  -0.885  -2.602  -2.758
  -0.633  -2.816  -2.758
  -0.341  -2.970  -2.758
  -0.023  -3.059  -2.758
   0.307  -3.077  -2.758
   0.632  -3.023  -2.758
   0.939  -2.901  -2.758
   1.213  -2.716  -2.758
   1.440  -2.476  -2.758
   1.610  -2.193  -2.758
   1.715  -1.880  -2.758
   1.469  -1.552  -2.914
  -0.979  -1.874  -2.914
  -0.854  -2.175  -2.914
  -0.657  -2.433  -2.914
  -0.399  -2.630  -2.914
  -0.098  -2.755  -2.914
   0.224  -2.797  -2.914
   0.546  -2.755  -2.914
   0.847  -2.630  -2.914
   1.105  -2.433  -2.914
   1.302  -2.175  -2.914
   1.427  -1.874  -2.914
   1.172  -1.552  -3.037
   1.115  -1.228  -3.037
  -0.724  -1.552  -3.037
  -0.667  -1.876  -3.037
  -0.502  -2.161  -3.037
  -0.250  -2.373  -3.037
   0.059  -2.486  -3.037
   0.389  -2.486  -3.037
   0.698  -2.373  -3.037
   0.950  -2.161  -3.037
   1.115  -1.876  -3.037
   0.863  -1.552  -3.126
   0.777  -1.233  -3.126
   0.543  -0.999  -3.126
  -0.329  -1.233  -3.126
  -0.415  -1.552  -3.126
  -0.329  -1.871  -3.126
  -0.095  -2.105  -3.126
   0.224  -2.191  -3.126
   0.543  -2.105  -3.126
   0.777  -1.871  -3.126
   0.545  -1.552  -3.180
   0.385  -1.274  -3.180
   0.063  -1.274  -3.180
  -0.097  -1.552  -3.180
   0.063  -1.830  -3.180
   0.385  -1.830  -3.180
   0.224  -1.552  -3.198
  -2.713  -0.128   1.899
  -2.671  -0.442   1.899
  -2.910   0.348   1.747
  -2.979   0.033   1.747
  -2.979  -0.289   1.747
  -2.910  -0.604   1.747
  -2.774  -0.896   1.747
  -2.580  -1.152   1.747
  -3.126   0.503   1.565
  -3.214   0.193   1.565
  -3.244  -0.128   1.565
  -3.214  -0.449   1.565
  -3.126  -0.759   1.565
  -2.982  -1.047   1.565
  -2.788  -1.304   1.565
  -2.550  -1.521   1.565
  -3.471   0.031   1.356
  -3.471  -0.287   1.356
  -3.420  -0.602   1.356
  -3.319  -0.904   1.356
  -3.171  -1.186   1.356
  -2.980  -1.441   1.356
  -2.750  -1.662   1.356
  -2.488  -1.843   1.356
  -2.200  -1.979   1.356
  -3.681  -0.288   1.122
  -3.635  -0.604   1.122
  -3.543  -0.910   1.122
  -3.407  -1.199   1.122
  -3.231  -1.466   1.122
  -3.017  -1.704   1.122
  -2.772  -1.908   1.122
  -2.499  -2.075   1.122
  -2.205  -2.200   1.122
  -3.821  -0.600   0.866
  -3.738  -0.906   0.866
  -3.614  -1.197   0.866
  -3.453  -1.470   0.866
  -3.256  -1.718   0.866
  -3.029  -1.938   0.866
  -2.774  -2.126   0.866
  -2.496  -2.279   0.866
  -3.941  -0.755   0.591
  -3.844  -1.057   0.591
  -3.709  -1.343   0.591
  -3.539  -1.611   0.591
  -3.337  -1.855   0.591
  -3.106  -2.072   0.591
  -2.850  -2.258   0.591
  -2.572  -2.411   0.591
  -3.969  -1.065   0.301
  -3.838  -1.356   0.301
  -3.673  -1.629   0.301
  -3.476  -1.881   0.301
  -3.251  -2.106   0.301
  -2.999  -2.303   0.301
  -2.726  -2.468   0.301
  -2.435  -2.599   0.301
  -3.937  -1.353  -0.001
  -3.779  -1.628  -0.001
  -3.589  -1.883  -0.001
  -3.371  -2.114  -0.001
  -3.128  -2.318  -0.001
  -2.863  -2.492  -0.001
  -2.579  -2.635  -0.001
  -3.749  -1.763  -0.310
  -3.548  -2.009  -0.310
  -3.320  -2.231  -0.310
  -3.069  -2.425  -0.310
  -2.796  -2.589  -0.310
  -2.507  -2.721  -0.310
  -3.687  -1.874  -0.624
  -3.478  -2.108  -0.624
  -3.244  -2.317  -0.624
  -2.988  -2.499  -0.624
  -2.713  -2.651  -0.624
  -2.423  -2.771  -0.624
  -3.320  -2.231  -0.937
  -3.069  -2.425  -0.937
  -2.796  -2.589  -0.937
  -2.507  -2.721  -0.937
  -3.128  -2.318  -1.247
  -2.863  -2.492  -1.247
  -2.579  -2.635  -1.247
  -2.281  -2.743  -1.247
  -2.999  -2.303  -1.549
  -2.726  -2.468  -1.549
  -2.435  -2.599  -1.549
  -2.130  -2.694  -1.549
  -2.850  -2.258  -1.839
  -2.572  -2.411  -1.839
  -2.278  -2.527  -1.839
  -2.496  -2.279  -2.114
  -2.200  -2.392  -2.114
  -1.892  -2.466  -2.114
  -2.205  -2.200  -2.370
  -1.896  -2.281  -2.370
  -1.894  -2.068  -2.604
  -1.578  -2.106  -2.604
  -1.659  -1.866  -2.813
  -1.337  -1.866  -2.813
  -3.451   0.508   1.416
  -3.715   0.329   1.248
  -4.052   0.501   1.047
  -3.954   0.158   1.047
  -3.795  -0.161   1.047
  -4.337   0.680   0.815
  -4.280   0.331   0.815
  -4.169  -0.003   0.815
  -4.005  -0.316   0.815
  -4.569   0.679   0.556
  -4.518   0.329   0.556
  -4.416  -0.010   0.556
  -4.266  -0.330   0.556
  -4.070  -0.625   0.556
  -4.771   0.681   0.272
  -4.724   0.333   0.272
  -4.632  -0.005   0.272
  -4.495  -0.328   0.272
  -4.316  -0.630   0.272
  -4.099  -0.905   0.272
  -4.945   0.856  -0.032
  -4.923   0.506  -0.032
  -4.857   0.161  -0.032
  -5.057   1.209  -0.353
  -5.078   0.856  -0.353
  -5.093   1.553  -0.687
  -5.108   1.724  -1.030
  -5.078   1.880  -1.377
  -4.834   2.371  -1.724
  -4.990   2.055  -1.724
  -1.976   3.873  -2.067
  -4.467   2.799  -2.067
  -4.677   2.517  -2.067
  -4.853   2.212  -2.067
  -2.152   3.782  -2.401
  -2.505   3.761  -2.401
  -2.852   3.697  -2.401
  -3.190   3.592  -2.401
  -3.512   3.447  -2.401
  -3.814   3.264  -2.401
  -4.092   3.046  -2.401
  -4.342   2.796  -2.401
  -4.560   2.518  -2.401
  -4.743   2.216  -2.401
  -2.327   3.643  -2.722
  -2.675   3.600  -2.722
  -3.015   3.512  -2.722
  -3.341   3.383  -2.722
  -3.649   3.214  -2.722
  -3.932   3.008  -2.722
  -4.188   2.768  -2.722
  -4.412   2.498  -2.722
  -1.977  -1.931  -2.722
  -2.589   3.444  -3.026
  -2.930   3.363  -3.026
  -3.257   3.237  -3.026
  -3.564   3.068  -3.026
  -3.847   2.860  -3.026
  -4.099   2.617  -3.026
  -4.316   2.342  -3.026
  -1.889  -1.756  -3.026
  -1.544  -1.697  -3.026
  -1.209  -1.593  -3.026
  -0.891  -1.446  -3.026
  -2.935   3.150  -3.310
  -3.260   3.011  -3.310
  -3.562   2.827  -3.310
  -3.834   2.601  -3.310
  -4.070   2.337  -3.310
  -1.887  -1.553  -3.310
  -1.539  -1.489  -3.310
  -1.204  -1.375  -3.310
  -0.889  -1.213  -3.310
  -0.602  -1.007  -3.310
  -2.929   2.906  -3.569
  -3.248   2.754  -3.569
  -3.538   2.554  -3.569
  -3.793   2.310  -3.569
  -4.005   2.028  -3.569
  -1.888  -1.320  -3.569
  -1.542  -1.249  -3.569
  -1.212  -1.124  -3.569
  -0.907  -0.948  -3.569
  -3.014   2.586  -3.801
  -3.317   2.398  -3.801
  -3.580   2.158  -3.801
  -1.974  -1.069  -3.801
  -1.623  -1.003  -3.801
  -1.290  -0.874  -3.801
  -3.078   2.221  -4.002
  -3.349   1.990  -4.002
  -3.565   1.706  -4.002
  -2.063  -0.791  -4.002
  -1.711  -0.733  -4.002
  -1.379  -0.601  -4.002
  -3.103   1.807  -4.170
  -3.317   1.529  -4.170
  -2.152  -0.489  -4.170
  -1.804  -0.443  -4.170
  -3.114   1.206  -4.303
  -2.330  -0.152  -4.303
  -1.974  -0.152  -4.303
  -2.842   0.856  -4.399
  -2.497   0.259  -4.399
  -3.138   2.223   1.701
  -3.287   1.965   1.701
  -3.339   1.671   1.701
  -3.287   1.377   1.701
  -3.138   1.119   1.701
  -3.278   2.469   1.590
  -3.457   2.235   1.590
  -3.570   1.963   1.590
  -3.608   1.671   1.590
  -3.570   1.379   1.590
  -3.457   1.107   1.590
  -3.278   0.873   1.590
  -3.044   0.694   1.590
  -2.992   2.956   1.448
  -3.256   2.816   1.448
  -3.484   2.622   1.448
  -3.665   2.384   1.448
  -3.791   2.113   1.448
  -3.855   1.821   1.448
  -3.855   1.521   1.448
  -3.791   1.229   1.448
  -3.665   0.958   1.448
  -3.484   0.720   1.448
  -2.924   3.230   1.280
  -3.203   3.122   1.280
  -3.457   2.965   1.280
  -3.678   2.763   1.280
  -3.858   2.524   1.280
  -3.992   2.257   1.280
  -4.073   1.969   1.280
  -4.101   1.671   1.280
  -4.073   1.373   1.280
  -3.992   1.085   1.280
  -3.858   0.818   1.280
  -2.848   3.472   1.085
  -3.132   3.390   1.085
  -3.399   3.263   1.085
  -3.643   3.095   1.085
  -3.856   2.890   1.085
  -4.034   2.654   1.085
  -4.171   2.392   1.085
  -4.265   2.111   1.085
  -4.313   1.819   1.085
  -4.313   1.523   1.085
  -4.265   1.231   1.085
  -4.171   0.950   1.085
  -4.034   0.688   1.085
  -2.849   3.670   0.868
  -3.136   3.595   0.868
  -3.409   3.479   0.868
  -3.663   3.324   0.868
  -3.891   3.134   0.868
  -4.089   2.913   0.868
  -4.253   2.666   0.868
  -4.379   2.397   0.868
  -4.464   2.113   0.868
  -4.507   1.819   0.868
  -4.507   1.523   0.868
  -4.464   1.229   0.868
  -4.379   0.945   0.868
  -2.554   3.871   0.630
  -2.846   3.842   0.630
  -3.132   3.774   0.630
  -3.407   3.668   0.630
  -3.665   3.527   0.630
  -3.901   3.352   0.630
  -4.113   3.148   0.630
  -4.295   2.917   0.630
  -4.445   2.664   0.630
  -4.560   2.393   0.630
  -4.637   2.110   0.630
  -4.677   1.818   0.630
  -4.677   1.524   0.630
  -4.637   1.233   0.630
  -4.560   0.949   0.630
  -2.627   4.009   0.375
  -2.919   3.972   0.375
  -3.204   3.899   0.375
  -3.477   3.791   0.375
  -3.735   3.649   0.375
  -3.973   3.476   0.375
  -4.188   3.275   0.375
  -4.375   3.048   0.375
  -4.533   2.800   0.375
  -4.658   2.533   0.375
  -4.749   2.254   0.375
  -4.804   1.965   0.375
  -4.823   1.671   0.375
  -4.804   1.377   0.375
  -4.749   1.088   0.375
  -2.480   4.125   0.106
  -2.776   4.107   0.106
  -3.067   4.054   0.106
  -3.350   3.966   0.106
  -3.620   3.844   0.106
  -3.874   3.691   0.106
  -4.107   3.508   0.106
  -4.317   3.298   0.106
  -4.500   3.065   0.106
  -4.653   2.811   0.106
  -4.775   2.541   0.106
  -4.863   2.258   0.106
  -4.916   1.967   0.106
  -4.934   1.671   0.106
  -4.916   1.375   0.106
  -2.040   4.167  -0.174
  -2.333   4.202  -0.174
  -2.627   4.202  -0.174
  -2.920   4.167  -0.174
  -3.207   4.099  -0.174
  -3.484   3.999  -0.174
  -3.747   3.866  -0.174
  -3.994   3.704  -0.174
  -4.219   3.515  -0.174
  -4.422   3.300  -0.174
  -4.598   3.064  -0.174
  -4.745   2.809  -0.174
  -4.862   2.538  -0.174
  -4.946   2.256  -0.174
  -4.998   1.965  -0.174
  -5.015   1.671  -0.174
  -4.998   1.377  -0.174
  -1.967   4.203  -0.462
  -2.259   4.245  -0.462
  -2.554   4.254  -0.462
  -2.848   4.228  -0.462
  -3.137   4.170  -0.462
  -3.417   4.079  -0.462
  -3.686   3.956  -0.462
  -3.938   3.804  -0.462
  -4.172   3.624  -0.462
  -4.383   3.418  -0.462
  -4.570   3.190  -0.462
  -4.730   2.941  -0.462
  -4.860   2.677  -0.462
  -4.959   2.399  -0.462
  -5.026   2.112  -0.462
  -5.059   1.819  -0.462
  -5.059   1.524  -0.462
  -1.901   4.206  -0.753
  -2.189   4.255  -0.753
  -2.480   4.271  -0.753