 $system timlim=999888777
         mwords=100 $end
 $contrl exetyp=run
         runtyp=energy scftyp=rhf
         icharg=-1 mult=1 units=angs coord=unique
         maxit=50 ispher=1 qmttol=1d-6 icut=12 itol=22 $end
 $scf    dirscf=.t. diis=.t. soscf=.f.
         fdiff=.f. conv=1d-6
         npreo(1)=0,-1,1,9999 $end
 $elpot  iepot=1 where=points $end
 $basis  gbasis=n311 ngauss=6
         ndfunc=1 npfunc=1 diffsp=.t. diffs=.t. $end
 $DATA
TS1a_hfd_irc200_all_revmov.pdb
C1
P     15.0    -0.00400   0.09600  -0.04700 
O      8.0     0.14500  -0.26800   1.52400 
O      8.0     1.13100   0.56200  -0.88400 
F      9.0     0.20200  -1.54600  -0.31500 
O      8.0    -1.50000  -0.12600  -0.62600 
C      6.0    -2.15200   0.85600  -1.37700 
H      1.0    -2.49800   1.66900  -0.75700 
H      1.0    -1.50200   1.25400  -2.15100 
H      1.0    -2.99600   0.36600  -1.85100 
C      6.0     0.75800   0.60300   2.42600 
H      1.0     0.96100   0.02100   3.32000 
H      1.0     1.69900   0.97500   2.03400 
H      1.0     0.12100   1.44200   2.66800 
O      8.0    -0.49800   1.76700   0.44200 
H      1.0     0.11600   2.34300   0.01100 
 $END
 $POINTS
ANGS 3019
  -2.577   0.284   2.011
   2.754  -1.352   1.043
   3.019  -1.004   0.687
  -0.193  -0.977  -3.162
   0.185  -0.977  -3.162
  -0.004  -0.638  -3.264
  -1.676  -1.044   3.504
  -1.528  -1.326   3.504
  -1.337  -1.581   3.504
  -1.107  -1.802   3.504
  -0.845  -1.983   3.504
  -0.557  -2.119   3.504
  -1.992  -0.744   3.270
  -1.900  -1.050   3.270
  -1.764  -1.339   3.270
  -1.588  -1.606   3.270
  -1.374  -1.844   3.270
  -1.129  -2.048   3.270
  -0.856  -2.215   3.270
  -0.562  -2.340   3.270
  -0.253  -2.421   3.270
   0.065  -2.456   3.270
  -2.221  -0.110   3.014
  -2.221  -0.426   3.014
  -2.178  -0.740   3.014
  -2.095  -1.046   3.014
  -1.971  -1.337   3.014
  -1.810  -1.610   3.014
  -1.613  -1.858   3.014
  -1.386  -2.078   3.014
  -1.131  -2.266   3.014
  -0.853  -2.419   3.014
  -0.557  -2.532   3.014
  -0.249  -2.606   3.014
   0.066  -2.638   3.014
   0.382  -2.627   3.014
   0.695  -2.574   3.014
  -2.358   0.048   2.739
  -2.378  -0.268   2.739
  -2.358  -0.584   2.739
  -2.298  -0.895   2.739
  -2.201  -1.197   2.739
  -2.066  -1.483   2.739
  -1.896  -1.751   2.739
  -1.694  -1.995   2.739
  -1.463  -2.212   2.739
  -1.207  -2.398   2.739
  -0.929  -2.551   2.739
  -0.635  -2.667   2.739
  -0.328  -2.746   2.739
  -0.013  -2.786   2.739
   0.303  -2.786   2.739
   0.618  -2.746   2.739
   0.925  -2.667   2.739
   1.219  -2.551   2.739
  -2.421   0.364   2.449
  -2.479   0.051   2.449
  -2.498  -0.268   2.449
  -2.479  -0.587   2.449
  -2.421  -0.900   2.449
  -2.326  -1.205   2.449
  -2.195  -1.496   2.449
  -2.030  -1.769   2.449
  -1.833  -2.021   2.449
  -1.608  -2.246   2.449
  -1.356  -2.443   2.449
  -1.083  -2.608   2.449
  -0.792  -2.739   2.449
  -0.487  -2.834   2.449
  -0.174  -2.892   2.449
   0.145  -2.911   2.449
   0.464  -2.892   2.449
   0.777  -2.834   2.449
   1.082  -2.739   2.449
   1.373  -2.608   2.449
   1.646  -2.443   2.449
  -2.511   0.362   2.147
  -2.566   0.049   2.147
  -2.585  -0.268   2.147
  -2.566  -0.585   2.147
  -2.511  -0.898   2.147
  -2.420  -1.202   2.147
  -2.294  -1.493   2.147
  -2.136  -1.768   2.147
  -1.946  -2.023   2.147
  -1.728  -2.254   2.147
  -1.485  -2.458   2.147
  -1.220  -2.632   2.147
  -0.936  -2.775   2.147
  -0.638  -2.883   2.147
  -0.329  -2.956   2.147
   0.928  -2.883   2.147
   1.226  -2.775   2.147
   1.510  -2.632   2.147
   1.775  -2.458   2.147
   2.018  -2.254   2.147
  -2.525  -1.052   1.838
  -2.418  -1.351   1.838
  -2.278  -1.636   1.838
  -2.106  -1.903   1.838
  -1.905  -2.149   1.838
  -1.677  -2.371   1.838
  -1.426  -2.565   1.838
   2.084  -2.263   1.838
   2.299  -2.029   1.838
  -2.044  -2.014   1.524
   3.171  -0.646   0.606
   3.654   0.562   0.331
   3.172  -0.921   0.331
   3.342  -0.653   0.331
   3.477  -0.367   0.331
   3.574  -0.065   0.331
   3.634   0.246   0.331
   3.774   0.562   0.041
   3.755   0.881   0.041
   3.697   1.194   0.041
   3.602   1.499   0.041
   3.471   1.790   0.041
   3.306   2.063   0.041
   3.109   2.315   0.041
   2.884   2.540   0.041
   3.109  -1.191   0.041
   3.306  -0.939   0.041
   3.471  -0.666   0.041
   3.602  -0.375   0.041
   3.697  -0.070   0.041
   3.755   0.243   0.041
   3.861   0.562  -0.261
   3.842   0.879  -0.261
   3.787   1.192  -0.261
   3.696   1.496  -0.261
   3.570   1.787  -0.261
   3.412   2.062  -0.261
   3.222   2.317  -0.261
   3.004   2.548  -0.261
   2.761   2.752  -0.261
   3.222  -1.193  -0.261
   3.412  -0.938  -0.261
   3.570  -0.663  -0.261
   3.696  -0.372  -0.261
   3.787  -0.068  -0.261
   3.842   0.245  -0.261
   3.913   0.562  -0.570
   3.895   0.879  -0.570
   3.841   1.192  -0.570
   3.752   1.497  -0.570
   3.628   1.790  -0.570
   3.472   2.066  -0.570
   3.285   2.323  -0.570
   3.070   2.557  -0.570
   2.830   2.765  -0.570
   3.070  -1.433  -0.570
   3.285  -1.199  -0.570
   3.472  -0.942  -0.570
   3.628  -0.666  -0.570
   3.752  -0.373  -0.570
   3.841  -0.068  -0.570
   3.895   0.245  -0.570
   3.931   0.562  -0.884
   3.913   0.876  -0.884
   3.861   1.185  -0.884
   3.774   1.487  -0.884
   3.654   1.777  -0.884
   3.502   2.052  -0.884
   3.320   2.308  -0.884
   3.111   2.542  -0.884
   2.877   2.751  -0.884
   2.621   2.933  -0.884
   3.111  -1.418  -0.884
   3.320  -1.184  -0.884
   3.502  -0.928  -0.884
   3.654  -0.653  -0.884
   3.774  -0.363  -0.884
   3.861  -0.061  -0.884
   3.913   0.248  -0.884
   3.913   0.562  -1.197
   3.895   0.879  -1.197
   3.841   1.192  -1.197
   3.752   1.497  -1.197
   3.628   1.790  -1.197
   3.472   2.066  -1.197
   3.285   2.323  -1.197
   3.070   2.557  -1.197
   2.830   2.765  -1.197
   2.568   2.945  -1.197
   3.070  -1.433  -1.197
   3.285  -1.199  -1.197
   3.472  -0.942  -1.197
   3.628  -0.666  -1.197
   3.752  -0.373  -1.197
   3.841  -0.068  -1.197
   3.895   0.245  -1.197
   3.861   0.562  -1.507
   3.842   0.879  -1.507
   3.787   1.192  -1.507
   3.696   1.496  -1.507
   3.570   1.787  -1.507
   3.412   2.062  -1.507
   3.222   2.317  -1.507
   3.004   2.548  -1.507
   2.761   2.752  -1.507
   2.496   2.926  -1.507
   2.212   3.069  -1.507
   3.004  -1.424  -1.507
   3.222  -1.193  -1.507
   3.412  -0.938  -1.507
   3.570  -0.663  -1.507
   3.696  -0.372  -1.507
   3.787  -0.068  -1.507
   3.842   0.245  -1.507
   3.774   0.562  -1.809
   3.755   0.881  -1.809
   3.697   1.194  -1.809
   3.602   1.499  -1.809
   3.471   1.790  -1.809
   3.306   2.063  -1.809
   3.109   2.315  -1.809
   2.884   2.540  -1.809
   2.632   2.737  -1.809
   2.359   2.902  -1.809
   2.068   3.033  -1.809
   2.884  -1.416  -1.809
   3.109  -1.191  -1.809
   3.306  -0.939  -1.809
   3.471  -0.666  -1.809
   3.602  -0.375  -1.809
   3.697  -0.070  -1.809
   3.755   0.243  -1.809
   3.654   0.562  -2.099
   3.634   0.878  -2.099
   3.574   1.189  -2.099
   3.477   1.491  -2.099
   3.342   1.777  -2.099
   3.172   2.045  -2.099
   2.970   2.289  -2.099
   2.739   2.506  -2.099
   2.483   2.692  -2.099
   2.205   2.845  -2.099
   1.911   2.961  -2.099
   1.604   3.040  -2.099
   2.483  -1.568  -2.099
   2.739  -1.382  -2.099
   2.970  -1.165  -2.099
   3.172  -0.921  -2.099
   3.342  -0.653  -2.099
   3.477  -0.367  -2.099
   3.574  -0.065  -2.099
   3.634   0.246  -2.099
   3.502   0.562  -2.374
   3.481   0.878  -2.374
   3.418   1.188  -2.374
   3.314   1.488  -2.374
   3.171   1.770  -2.374
   2.992   2.031  -2.374
   2.779   2.266  -2.374
   2.537   2.471  -2.374
   2.270   2.641  -2.374
   1.983   2.774  -2.374
   1.681   2.868  -2.374
   1.368   2.921  -2.374
   1.052   2.932  -2.374
   2.270  -1.517  -2.374
   2.537  -1.347  -2.374
   2.779  -1.142  -2.374
   2.992  -0.907  -2.374
   3.171  -0.646  -2.374
   3.314  -0.364  -2.374
   3.418  -0.064  -2.374
   3.481   0.246  -2.374
   3.320   0.562  -2.630
   3.297   0.881  -2.630
   3.227   1.193  -2.630
   3.113   1.491  -2.630
   2.957   1.770  -2.630
   2.761   2.023  -2.630
   2.531   2.245  -2.630
   2.271   2.431  -2.630
   1.987   2.577  -2.630
   1.685   2.680  -2.630
   1.370   2.738  -2.630
   1.051   2.750  -2.630
   0.733   2.715  -2.630
   1.987  -1.453  -2.630
   2.271  -1.307  -2.630
   2.531  -1.121  -2.630
   2.761  -0.899  -2.630
   2.957  -0.646  -2.630
   3.113  -0.367  -2.630
   3.227  -0.069  -2.630
   3.297   0.243  -2.630
   3.111   0.562  -2.864
   3.085   0.880  -2.864
   3.009   1.189  -2.864
   2.884   1.482  -2.864
   2.714   1.751  -2.864
   2.503   1.990  -2.864
   2.256   2.191  -2.864
   1.980   2.351  -2.864
   1.682   2.464  -2.864
   1.370   2.527  -2.864
   1.051   2.540  -2.864
   0.735   2.502  -2.864
   1.682  -1.340  -2.864
   1.980  -1.227  -2.864
   2.256  -1.067  -2.864
   2.503  -0.866  -2.864
   2.714  -0.627  -2.864
   2.884  -0.358  -2.864
   3.009  -0.065  -2.864
   3.085   0.244  -2.864
   2.877   0.562  -3.073
   2.847   0.883  -3.073
   2.759   1.193  -3.073
   2.615   1.481  -3.073
   2.421   1.738  -3.073
   2.183   1.955  -3.073
   1.909   2.125  -3.073
   1.609   2.241  -3.073
   1.292   2.300  -3.073
   0.970   2.300  -3.073
   0.970  -1.176  -3.073
   1.292  -1.176  -3.073
   1.609  -1.117  -3.073
   1.909  -1.001  -3.073
   2.183  -0.831  -3.073
   2.421  -0.614  -3.073
   2.615  -0.357  -3.073
   2.759  -0.069  -3.073
   2.847   0.241  -3.073
   2.621   0.562  -3.255
   2.586   0.882  -3.255
   2.483   1.188  -3.255
   2.317   1.464  -3.255
   2.095   1.697  -3.255
   1.829   1.878  -3.255
   1.530   1.997  -3.255
   1.212   2.050  -3.255
   0.890   2.032  -3.255
   0.295  -0.671  -3.255
   0.580  -0.822  -3.255
   0.890  -0.908  -3.255
   1.212  -0.926  -3.255
   1.530  -0.873  -3.255
   1.829  -0.754  -3.255
   2.095  -0.573  -3.255
   2.317  -0.340  -3.255
   2.483  -0.064  -3.255
   2.586   0.242  -3.255
   2.346   0.562  -3.407
   2.304   0.876  -3.407
   2.183   1.169  -3.407
   1.990   1.421  -3.407
   1.738   1.614  -3.407
   1.445   1.735  -3.407
   1.131   1.777  -3.407
   0.817   1.735  -3.407
   0.272  -0.297  -3.407
   0.524  -0.490  -3.407
   0.817  -0.611  -3.407
   1.131  -0.653  -3.407
   1.445  -0.611  -3.407
   1.738  -0.490  -3.407
   1.990  -0.297  -3.407
   2.183  -0.045  -3.407
   2.304   0.248  -3.407
   2.056   0.562  -3.527
   2.000   0.878  -3.527
   1.839   1.156  -3.527
   1.593   1.363  -3.527
   1.292   1.473  -3.527
   0.970   1.473  -3.527
   0.423  -0.032  -3.527
   0.669  -0.239  -3.527
   0.970  -0.349  -3.527
   1.292  -0.349  -3.527
   1.593  -0.239  -3.527
   1.839  -0.032  -3.527
   2.000   0.246  -3.527
   1.754   0.562  -3.614
   1.671   0.874  -3.614
   1.443   1.102  -3.614
   1.131   1.185  -3.614
   0.819   1.102  -3.614
   0.591   0.250  -3.614
   0.819   0.022  -3.614
   1.131  -0.061  -3.614
   1.443   0.022  -3.614
   1.671   0.250  -3.614
   1.445   0.562  -3.666
   1.288   0.834  -3.666
   0.974   0.834  -3.666
   0.817   0.562  -3.666
   0.974   0.290  -3.666
   1.288   0.290  -3.666
   1.131   0.562  -3.684
  -0.363  -2.964   2.115
  -0.045  -3.053   2.115
   0.285  -3.071   2.115
   0.610  -3.017   2.115
   0.917  -2.895   2.115
  -1.120  -2.752   1.929
  -0.876  -2.974   1.929
  -0.596  -3.148   1.929
  -0.288  -3.267   1.929
   0.037  -3.328   1.929
   0.367  -3.328   1.929
   0.692  -3.267   1.929
   1.000  -3.148   1.929
   1.280  -2.974   1.929
   1.524  -2.752   1.929
  -1.513  -2.631   1.714
  -1.317  -2.892   1.714
  -1.081  -3.118   1.714
  -0.813  -3.304   1.714
  -0.518  -3.444   1.714
  -0.204  -3.534   1.714
   0.120  -3.574   1.714
   0.447  -3.561   1.714
   0.767  -3.495   1.714
   1.072  -3.379   1.714
   1.355  -3.216   1.714
   1.608  -3.010   1.714
   1.824  -2.765   1.714
   1.999  -2.489   1.714
  -1.894  -2.348   1.474
  -1.755  -2.644   1.474
  -1.574  -2.917   1.474
  -1.355  -3.161   1.474
  -1.104  -3.371   1.474
  -0.824  -3.542   1.474
  -0.523  -3.670   1.474
  -0.206  -3.753   1.474
   0.120  -3.788   1.474
   0.447  -3.776   1.474
   0.770  -3.717   1.474
   1.080  -3.611   1.474
   1.371  -3.461   1.474
   1.637  -3.271   1.474
   1.873  -3.043   1.474
   2.073  -2.784   1.474
   2.234  -2.498   1.474
   2.351  -2.192   1.474
  -2.094  -2.343   1.212
  -1.967  -2.642   1.212
  -1.801  -2.921   1.212
  -1.600  -3.176   1.212
  -1.367  -3.402   1.212
  -1.106  -3.594   1.212
  -0.821  -3.750   1.212
  -0.518  -3.867   1.212
  -0.202  -3.942   1.212
   0.121  -3.975   1.212
   0.445  -3.964   1.212
   0.765  -3.910   1.212
   1.075  -3.814   1.212
   1.370  -3.677   1.212
   1.643  -3.502   1.212
   1.891  -3.293   1.212
   2.109  -3.052   1.212
   2.293  -2.784   1.212
   2.439  -2.495   1.212
   2.546  -2.188   1.212
   2.610  -1.870   1.212
   2.788  -1.546   0.930
  -2.202  -2.498   0.930
  -2.064  -2.792   0.930
  -1.890  -3.066   0.930
  -1.683  -3.316   0.930
  -1.446  -3.538   0.930
  -1.184  -3.729   0.930
  -0.899  -3.886   0.930
  -0.597  -4.005   0.930
  -0.283  -4.086   0.930
   0.040  -4.127   0.930
   0.364  -4.127   0.930
   0.687  -4.086   0.930
   1.001  -4.005   0.930
   1.303  -3.886   0.930
   1.588  -3.729   0.930
   1.850  -3.538   0.930
   2.087  -3.316   0.930
   2.294  -3.066   0.930
   2.468  -2.792   0.930
   2.606  -2.498   0.930
   2.707  -2.189   0.930
   2.767  -1.870   0.930
   2.911  -1.546   0.633
  -2.331  -2.507   0.633
  -2.197  -2.805   0.633
  -2.027  -3.085   0.633
  -1.826  -3.342   0.633
  -1.594  -3.574   0.633
  -1.337  -3.775   0.633
  -1.057  -3.945   0.633
  -0.759  -4.079   0.633
  -0.446  -4.176   0.633
  -0.125  -4.235   0.633
   0.202  -4.255   0.633
   0.529  -4.235   0.633
   0.850  -4.176   0.633
   1.163  -4.079   0.633
   1.461  -3.945   0.633
   1.741  -3.775   0.633
   1.998  -3.574   0.633
   2.230  -3.342   0.633
   2.431  -3.085   0.633
   2.601  -2.805   0.633
   2.735  -2.507   0.633
   2.832  -2.194   0.633
   2.891  -1.873   0.633
   3.000  -1.546   0.324
  -2.298  -2.802   0.324
  -2.136  -3.084   0.324
  -1.941  -3.345   0.324
  -1.718  -3.581   0.324
  -1.469  -3.790   0.324
  -1.197  -3.969   0.324
  -0.906  -4.115   0.324
  -0.600  -4.226   0.324
  -0.284  -4.302   0.324
   0.039  -4.339   0.324
   0.365  -4.339   0.324
   0.688  -4.302   0.324
   1.004  -4.226   0.324
   1.310  -4.115   0.324
   1.601  -3.969   0.324
   1.873  -3.790   0.324
   2.122  -3.581   0.324
   2.345  -3.345   0.324
   2.540  -3.084   0.324
   2.702  -2.802   0.324
   2.831  -2.503   0.324
   2.925  -2.191   0.324
   2.981  -1.871   0.324
   3.054  -1.546   0.006
  -2.281  -2.948   0.006
  -2.105  -3.222   0.006
  -1.899  -3.474   0.006
  -1.666  -3.701   0.006
  -1.408  -3.900   0.006
  -1.129  -4.068   0.006
  -0.833  -4.204   0.006
  -0.523  -4.304   0.006
  -0.204  -4.369   0.006
   0.121  -4.397   0.006
   0.446  -4.387   0.006
   0.768  -4.341   0.006
   1.083  -4.258   0.006
   1.387  -4.140   0.006
   1.675  -3.988   0.006
   1.944  -3.804   0.006
   2.190  -3.591   0.006
   2.410  -3.351   0.006
   2.601  -3.088   0.006
   2.761  -2.804   0.006
   2.888  -2.504   0.006
   2.980  -2.192   0.006
   3.035  -1.871   0.006
   3.072  -1.546  -0.315
  -2.384  -2.791  -0.315
  -2.228  -3.073  -0.315
  -2.042  -3.335  -0.315
  -1.827  -3.575  -0.315
  -1.587  -3.790  -0.315
  -1.325  -3.976  -0.315
  -1.043  -4.132  -0.315
  -0.746  -4.255  -0.315
  -0.437  -4.344  -0.315
  -0.119  -4.398  -0.315
   0.202  -4.416  -0.315
   0.523  -4.398  -0.315
   0.841  -4.344  -0.315
   1.150  -4.255  -0.315
   1.447  -4.132  -0.315
   1.729  -3.976  -0.315
   1.991  -3.790  -0.315
   2.231  -3.575  -0.315
   2.446  -3.335  -0.315
   2.632  -3.073  -0.315
   2.788  -2.791  -0.315
   2.911  -2.494  -0.315
   3.000  -2.185  -0.315
   3.054  -1.867  -0.315
   3.054  -1.546  -0.636
  -2.281  -2.948  -0.636
  -2.105  -3.222  -0.636
  -1.899  -3.474  -0.636
  -1.666  -3.701  -0.636
  -1.408  -3.900  -0.636
  -1.129  -4.068  -0.636
  -0.833  -4.204  -0.636
  -0.523  -4.304  -0.636
  -0.204  -4.369  -0.636
   0.121  -4.397  -0.636
   0.446  -4.387  -0.636
   0.768  -4.341  -0.636
   1.083  -4.258  -0.636
   1.387  -4.140  -0.636
   1.675  -3.988  -0.636
   1.944  -3.804  -0.636
   2.190  -3.591  -0.636
   2.410  -3.351  -0.636
   2.601  -3.088  -0.636
   2.761  -2.804  -0.636
   2.888  -2.504  -0.636
   2.980  -2.192  -0.636
   3.035  -1.871  -0.636
   3.000  -1.546  -0.954
  -2.298  -2.802  -0.954
  -2.136  -3.084  -0.954
  -1.941  -3.345  -0.954
  -1.718  -3.581  -0.954
  -1.469  -3.790  -0.954
  -1.197  -3.969  -0.954
  -0.906  -4.115  -0.954
  -0.600  -4.226  -0.954
  -0.284  -4.302  -0.954
   0.039  -4.339  -0.954
   0.365  -4.339  -0.954
   0.688  -4.302  -0.954
   1.004  -4.227  -0.954
   1.310  -4.115  -0.954
   1.601  -3.969  -0.954
   1.873  -3.790  -0.954
   2.122  -3.581  -0.954
   2.345  -3.345  -0.954
   2.540  -3.084  -0.954
   2.702  -2.802  -0.954
   2.831  -2.503  -0.954
   2.925  -2.191  -0.954
   2.981  -1.871  -0.954
  -2.197  -2.805  -1.263
  -2.027  -3.085  -1.263
  -1.826  -3.342  -1.263
  -1.594  -3.574  -1.263
  -1.337  -3.775  -1.263
  -1.057  -3.945  -1.263
  -0.759  -4.079  -1.263
  -0.446  -4.176  -1.263
  -0.125  -4.235  -1.263
   0.202  -4.255  -1.263
   0.529  -4.235  -1.263
   0.850  -4.176  -1.263
   1.163  -4.079  -1.263
   1.461  -3.945  -1.263
   1.741  -3.775  -1.263
   1.998  -3.574  -1.263
   2.230  -3.342  -1.263
   2.431  -3.085  -1.263
   2.601  -2.805  -1.263
   2.735  -2.507  -1.263
   2.832  -2.194  -1.263
   2.891  -1.873  -1.263
  -2.064  -2.792  -1.560
  -1.890  -3.066  -1.560
  -1.683  -3.316  -1.560
  -1.446  -3.538  -1.560
  -1.184  -3.729  -1.560
  -0.899  -3.886  -1.560
  -0.597  -4.005  -1.560
  -0.283  -4.086  -1.560
   0.040  -4.127  -1.560
   0.364  -4.127  -1.560
   0.687  -4.086  -1.560
   1.001  -4.005  -1.560
   1.303  -3.886  -1.560
   1.588  -3.729  -1.560
   1.850  -3.538  -1.560
   2.087  -3.316  -1.560
   2.294  -3.066  -1.560
   2.468  -2.792  -1.560
   2.606  -2.498  -1.560
   2.707  -2.189  -1.560
   2.767  -1.870  -1.560
  -1.967  -2.642  -1.842
  -1.801  -2.921  -1.842
  -1.600  -3.176  -1.842
  -1.367  -3.402  -1.842
  -1.106  -3.594  -1.842
  -0.821  -3.750  -1.842
  -0.518  -3.867  -1.842
  -0.202  -3.942  -1.842
   0.121  -3.975  -1.842
   0.445  -3.964  -1.842
   0.765  -3.910  -1.842
   1.075  -3.814  -1.842
   1.370  -3.677  -1.842
   1.643  -3.502  -1.842
   1.891  -3.293  -1.842
   2.109  -3.052  -1.842
   2.293  -2.784  -1.842
   2.439  -2.495  -1.842
   2.546  -2.188  -1.842
   2.610  -1.870  -1.842
  -1.755  -2.644  -2.104
  -1.574  -2.917  -2.104
  -1.355  -3.161  -2.104
  -1.104  -3.371  -2.104
  -0.824  -3.542  -2.104
  -0.523  -3.670  -2.104
  -0.206  -3.753  -2.104
   0.120  -3.788  -2.104
   0.447  -3.776  -2.104
   0.770  -3.717  -2.104
   1.080  -3.611  -2.104
   1.371  -3.461  -2.104
   1.637  -3.271  -2.104
   1.873  -3.043  -2.104
   2.073  -2.784  -2.104
   2.234  -2.498  -2.104
   2.351  -2.192  -2.104
   2.422  -1.873  -2.104
  -1.665  -2.341  -2.344
  -1.513  -2.631  -2.344
  -1.317  -2.892  -2.344
  -1.081  -3.118  -2.344
  -0.813  -3.304  -2.344
  -0.518  -3.444  -2.344
  -0.204  -3.534  -2.344
   0.120  -3.574  -2.344
   0.447  -3.561  -2.344
   0.767  -3.495  -2.344
   1.072  -3.379  -2.344
   1.355  -3.216  -2.344
   1.608  -3.010  -2.344
   1.824  -2.765  -2.344
   1.999  -2.489  -2.344
   2.127  -2.189  -2.344
   2.205  -1.872  -2.344
   1.991  -1.546  -2.559
  -1.467  -2.192  -2.559
  -1.319  -2.488  -2.559
  -1.120  -2.752  -2.559
  -0.876  -2.974  -2.559
  -0.596  -3.148  -2.559
  -0.288  -3.267  -2.559
   0.037  -3.328  -2.559
   0.367  -3.328  -2.559
   0.692  -3.267  -2.559
   1.000  -3.148  -2.559
   1.280  -2.974  -2.559
   1.524  -2.752  -2.559
   1.723  -2.488  -2.559
   1.871  -2.192  -2.559
   1.961  -1.875  -2.559
   1.729  -1.546  -2.745
  -1.245  -2.034  -2.745
  -1.106  -2.333  -2.745
  -0.907  -2.596  -2.745
  -0.655  -2.810  -2.745
  -0.363  -2.964  -2.745
  -0.045  -3.053  -2.745
   0.285  -3.071  -2.745
   0.610  -3.017  -2.745
   0.917  -2.895  -2.745
   1.191  -2.710  -2.745
   1.418  -2.470  -2.745
   1.588  -2.187  -2.745
   1.693  -1.874  -2.745
   1.447  -1.546  -2.901
  -1.001  -1.868  -2.901
  -0.876  -2.169  -2.901
  -0.679  -2.427  -2.901
  -0.421  -2.624  -2.901
  -0.120  -2.749  -2.901
   0.202  -2.791  -2.901
   0.524  -2.749  -2.901
   0.825  -2.624  -2.901
   1.083  -2.427  -2.901
   1.280  -2.169  -2.901
   1.405  -1.868  -2.901
   1.150  -1.546  -3.024
  -0.746  -1.546  -3.024
  -0.689  -1.870  -3.024
  -0.524  -2.155  -3.024
  -0.272  -2.367  -3.024
   0.037  -2.480  -3.024
   0.367  -2.480  -3.024
   0.676  -2.367  -3.024
   0.928  -2.155  -3.024
   1.093  -1.870  -3.024
   0.841  -1.546  -3.113
   0.755  -1.227  -3.113
  -0.351  -1.227  -3.113
  -0.437  -1.546  -3.113
  -0.351  -1.865  -3.113
  -0.117  -2.099  -3.113
   0.202  -2.185  -3.113
   0.521  -2.099  -3.113
   0.755  -1.865  -3.113
   0.523  -1.546  -3.167
   0.363  -1.268  -3.167
   0.041  -1.268  -3.167
  -0.119  -1.546  -3.167
   0.041  -1.824  -3.167
   0.363  -1.824  -3.167
   0.202  -1.546  -3.185
  -2.673   0.188   1.897
  -2.715  -0.126   1.897
  -2.673  -0.440   1.897
  -2.776   0.642   1.745
  -2.912   0.350   1.745
  -2.981   0.035   1.745
  -2.981  -0.287   1.745
  -2.912  -0.602   1.745
  -2.776  -0.894   1.745
  -2.582  -1.150   1.745
  -3.128   0.505   1.563
  -3.216   0.195   1.563
  -3.246  -0.126   1.563
  -3.216  -0.447   1.563
  -3.128  -0.757   1.563
  -2.984  -1.045   1.563
  -2.790  -1.302   1.563
  -2.552  -1.519   1.563
  -2.278  -1.689   1.563
  -3.473   0.033   1.354
  -3.473  -0.285   1.354
  -3.422  -0.600   1.354
  -3.321  -0.902   1.354
  -3.173  -1.184   1.354
  -2.982  -1.439   1.354
  -2.752  -1.660   1.354
  -2.490  -1.841   1.354
  -2.202  -1.977   1.354
  -3.683  -0.286   1.120
  -3.637  -0.602   1.120
  -3.545  -0.908   1.120
  -3.409  -1.197   1.120
  -3.233  -1.464   1.120
  -3.019  -1.702   1.120
  -2.774  -1.906   1.120
  -2.501  -2.073   1.120
  -2.207  -2.198   1.120
  -3.823  -0.598   0.864
  -3.740  -0.904   0.864
  -3.616  -1.195   0.864
  -3.455  -1.468   0.864
  -3.258  -1.716   0.864
  -3.031  -1.936   0.864
  -2.776  -2.124   0.864
  -2.498  -2.277   0.864
  -3.943  -0.753   0.589
  -3.846  -1.055   0.589
  -3.711  -1.341   0.589
  -3.541  -1.609   0.589
  -3.339  -1.853   0.589
  -3.108  -2.070   0.589
  -2.852  -2.256   0.589
  -2.574  -2.409   0.589
  -3.971  -1.063   0.299
  -3.840  -1.354   0.299
  -3.675  -1.627   0.299
  -3.478  -1.879   0.299
  -3.253  -2.104   0.299
  -3.001  -2.301   0.299
  -2.728  -2.466   0.299
  -2.437  -2.597   0.299
  -3.939  -1.351  -0.003
  -3.781  -1.626  -0.003
  -3.591  -1.881  -0.003
  -3.373  -2.112  -0.003
  -3.130  -2.316  -0.003
  -2.865  -2.490  -0.003
  -2.581  -2.633  -0.003
  -3.751  -1.761  -0.312
  -3.550  -2.007  -0.312
  -3.322  -2.229  -0.312
  -3.071  -2.423  -0.312
  -2.798  -2.587  -0.312
  -2.509  -2.719  -0.312
  -3.689  -1.872  -0.626
  -3.480  -2.106  -0.626
  -3.246  -2.315  -0.626
  -2.990  -2.497  -0.626
  -2.715  -2.649  -0.626
  -2.425  -2.769  -0.626
  -3.550  -2.007  -0.939
  -3.322  -2.229  -0.939
  -3.071  -2.423  -0.939
  -2.798  -2.587  -0.939
  -2.509  -2.719  -0.939
  -3.130  -2.316  -1.249
  -2.865  -2.490  -1.249
  -2.581  -2.633  -1.249
  -2.283  -2.741  -1.249
  -3.001  -2.301  -1.551
  -2.728  -2.466  -1.551
  -2.437  -2.597  -1.551
  -2.132  -2.692  -1.551
  -2.852  -2.256  -1.841
  -2.574  -2.409  -1.841
  -2.280  -2.525  -1.841
  -2.498  -2.277  -2.116
  -2.202  -2.390  -2.116
  -1.894  -2.464  -2.116
  -2.207  -2.198  -2.372
  -1.898  -2.279  -2.372
  -1.896  -2.066  -2.606
  -1.580  -2.104  -2.606
  -1.661  -1.864  -2.815
  -1.339  -1.864  -2.815
  -3.451   0.508   1.416
  -3.715   0.329   1.248
  -4.052   0.501   1.047
  -3.954   0.158   1.047
  -3.795  -0.161   1.047
  -4.337   0.680   0.815
  -4.280   0.331   0.815
  -4.169  -0.003   0.815
  -4.005  -0.316   0.815
  -4.569   0.679   0.556
  -4.518   0.329   0.556
  -4.416  -0.010   0.556
  -4.266  -0.330   0.556
  -4.070  -0.625   0.556
  -4.771   0.681   0.272
  -4.724   0.333   0.272
  -4.632  -0.005   0.272
  -4.495  -0.328   0.272
  -4.316  -0.630   0.272
  -4.099  -0.905   0.272
  -4.945   0.856  -0.032
  -4.923   0.506  -0.032
  -4.857   0.161  -0.032
  -5.057   1.209  -0.353
  -5.078   0.856  -0.353
  -5.108   1.724  -1.030
  -5.078   1.880  -1.377
  -4.834   2.371  -1.724
  -4.990   2.055  -1.724
  -1.976   3.873  -2.067
  -4.467   2.799  -2.067
  -4.677   2.517  -2.067
  -4.853   2.212  -2.067
  -2.152   3.782  -2.401
  -2.505   3.761  -2.401
  -2.852   3.697  -2.401
  -3.190   3.592  -2.401
  -3.512   3.447  -2.401
  -3.814   3.264  -2.401
  -4.092   3.046  -2.401
  -4.342   2.796  -2.401
  -4.560   2.518  -2.401
  -4.743   2.216  -2.401
  -2.675   3.600  -2.722
  -3.015   3.512  -2.722
  -3.341   3.383  -2.722
  -3.649   3.214  -2.722
  -3.932   3.008  -2.722
  -4.188   2.768  -2.722
  -4.412   2.498  -2.722
  -1.977  -1.931  -2.722
  -2.930   3.363  -3.026
  -3.257   3.237  -3.026
  -3.564   3.068  -3.026
  -3.847   2.860  -3.026
  -4.099   2.617  -3.026
  -4.316   2.342  -3.026
  -1.889  -1.756  -3.026
  -1.544  -1.697  -3.026
  -1.209  -1.593  -3.026
  -0.891  -1.446  -3.026
  -2.935   3.150  -3.310
  -3.260   3.011  -3.310
  -3.562   2.827  -3.310
  -3.834   2.601  -3.310
  -4.070   2.337  -3.310
  -1.887  -1.553  -3.310
  -1.539  -1.489  -3.310
  -1.204  -1.375  -3.310
  -0.889  -1.213  -3.310
  -0.602  -1.007  -3.310
  -2.929   2.906  -3.569
  -3.248   2.754  -3.569
  -3.538   2.554  -3.569
  -3.793   2.310  -3.569
  -1.888  -1.320  -3.569
  -1.542  -1.249  -3.569
  -1.212  -1.124  -3.569
  -0.907  -0.948  -3.569
  -3.014   2.586  -3.801
  -3.317   2.398  -3.801
  -3.580   2.158  -3.801
  -1.974  -1.069  -3.801
  -1.623  -1.003  -3.801
  -1.290  -0.874  -3.801
  -3.078   2.221  -4.002
  -3.349   1.990  -4.002
  -2.063  -0.791  -4.002
  -1.711  -0.733  -4.002
  -1.379  -0.601  -4.002
  -3.103   1.807  -4.170
  -3.317   1.529  -4.170
  -2.152  -0.489  -4.170
  -1.804  -0.443  -4.170
  -1.974  -0.152  -4.303
  -2.999   1.958   1.778
  -3.077   1.669   1.778
  -2.999   1.380   1.778
  -2.927   2.413   1.697
  -3.156   2.221   1.697
  -3.305   1.963   1.697
  -3.357   1.669   1.697
  -3.305   1.375   1.697
  -3.156   1.117   1.697
  -2.927   0.925   1.697
  -3.062   2.646   1.586
  -3.296   2.467   1.586
  -3.475   2.233   1.586
  -3.588   1.961   1.586
  -3.626   1.669   1.586
  -3.588   1.377   1.586
  -3.475   1.105   1.586
  -3.296   0.871   1.586
  -3.062   0.692   1.586
  -3.010   2.954   1.444
  -3.274   2.814   1.444
  -3.502   2.620   1.444
  -3.683   2.382   1.444
  -3.809   2.111   1.444
  -3.873   1.819   1.444
  -3.873   1.519   1.444
  -3.809   1.227   1.444
  -3.683   0.956   1.444
  -3.502   0.718   1.444
  -2.942   3.228   1.276
  -3.221   3.120   1.276
  -3.475   2.963   1.276
  -3.696   2.761   1.276
  -3.876   2.522   1.276
  -4.010   2.255   1.276
  -4.091   1.967   1.276
  -4.119   1.669   1.276
  -4.091   1.371   1.276
  -4.010   1.083   1.276
  -3.876   0.816   1.276
  -2.866   3.470   1.081
  -3.150   3.388   1.081
  -3.417   3.261   1.081
  -3.661   3.093   1.081
  -3.874   2.888   1.081
  -4.052   2.652   1.081
  -4.189   2.390   1.081
  -4.283   2.109   1.081
  -4.331   1.817   1.081
  -4.331   1.521   1.081
  -4.283   1.229   1.081
  -4.189   0.948   1.081
  -4.052   0.686   1.081
  -2.572   3.700   0.864
  -2.867   3.668   0.864
  -3.154   3.593   0.864
  -3.427   3.477   0.864
  -3.681   3.322   0.864
  -3.909   3.132   0.864
  -4.107   2.911   0.864
  -4.271   2.664   0.864
  -4.397   2.395   0.864
  -4.482   2.111   0.864
  -4.525   1.817   0.864
  -4.525   1.521   0.864
  -4.482   1.227   0.864
  -4.397   0.943   0.864
  -2.572   3.869   0.626
  -2.864   3.840   0.626
  -3.150   3.772   0.626
  -3.425   3.666   0.626
  -3.683   3.525   0.626
  -3.919   3.350   0.626
  -4.131   3.146   0.626
  -4.313   2.915   0.626
  -4.463   2.662   0.626
  -4.578   2.391   0.626
  -4.655   2.108   0.626
  -4.695   1.816   0.626
  -4.695   1.522   0.626
  -4.655   1.231   0.626
  -4.578   0.947   0.626
  -2.351   4.007   0.371
  -2.645   4.007   0.371
  -2.937   3.970   0.371
  -3.222   3.897   0.371
  -3.495   3.789   0.371
  -3.753   3.647   0.371
  -3.991   3.474   0.371
  -4.206   3.273   0.371
  -4.393   3.046   0.371
  -4.551   2.798   0.371
  -4.676   2.531   0.371
  -4.767   2.252   0.371
  -4.822   1.963   0.371
  -4.841   1.669   0.371
  -4.822   1.375   0.371
  -4.767   1.086   0.371
  -2.202   4.105   0.102
  -2.498   4.123   0.102
  -2.794   4.105   0.102
  -3.085   4.052   0.102
  -3.368   3.964   0.102
  -3.638   3.842   0.102
  -3.892   3.689   0.102
  -4.125   3.506   0.102
  -4.335   3.296   0.102
  -4.518   3.063   0.102
  -4.671   2.809   0.102
  -4.793   2.539   0.102
  -4.881   2.256   0.102
  -4.934   1.965   0.102
  -4.952   1.669   0.102
  -4.934   1.373   0.102
  -4.881   1.082   0.102
  -2.058   4.165  -0.178
  -2.351   4.200  -0.178
  -2.645   4.200  -0.178
  -2.938   4.165  -0.178
  -3.225   4.097  -0.178
  -3.502   3.997  -0.178
  -3.765   3.864  -0.178
  -4.012   3.702  -0.178
  -4.237   3.513  -0.178
  -4.440   3.298  -0.178
  -4.616   3.062  -0.178
  -4.763   2.807  -0.178
  -4.880   2.536  -0.178
  -4.964   2.254  -0.178
  -5.016   1.963  -0.178
  -5.033   1.669  -0.178
  -5.016   1.375  -0.178
  -1.985   4.201  -0.466
  -2.277   4.243  -0.466
  -2.572   4.252  -0.466
  -2.866   4.226  -0.466
  -3.155   4.168  -0.466
  -3.435   4.077  -0.466
  -3.704   3.954  -0.466
  -3.956   3.802  -0.466
  -4.190   3.622  -0.466
  -4.401   3.416  -0.466
  -4.588   3.188  -0.466
  -4.748   2.939  -0.466
  -4.878   2.675  -0.466
  -4.977   2.397  -0.466
  -5.044   2.110  -0.466
  -5.077   1.817  -0.466
  -5.077   1.522  -0.466
  -1.639   4.123  -0.757
  -1.919   4.204  -0.757
  -2.207   4.253  -0.757
  -2.498   4.269  -0.757
  -2.789   4.253  -0.757
  -3.077   4.204  -0.757
  -3.357   4.123  -0.757