 $system timlim=999888777
         mwords=100 $end
 $contrl exetyp=run
         runtyp=energy scftyp=rhf
         icharg=-1 mult=1 units=angs coord=unique
         maxit=50 ispher=1 qmttol=1d-6 icut=12 itol=22 $end
 $scf    dirscf=.t. diis=.t. soscf=.f.
         fdiff=.f. conv=1d-6
         npreo(1)=0,-1,1,9999 $end
 $elpot  iepot=1 where=points $end
 $basis  gbasis=n311 ngauss=6
         ndfunc=1 npfunc=1 diffsp=.t. diffs=.t. $end
 $DATA
TS1a_hfd_irc200_all_revmov.pdb
C1
P     15.0     0.00500   0.07200  -0.03100 
O      8.0     0.14000  -0.27300   1.55800 
O      8.0     1.17200   0.44300  -0.88200 
F      9.0     0.12900  -1.57700  -0.23700 
O      8.0    -1.50200  -0.12400  -0.62800 
C      6.0    -2.15200   0.85600  -1.37700 
H      1.0    -2.54900   1.64500  -0.75100 
H      1.0    -1.49100   1.29700  -2.11700 
H      1.0    -2.96600   0.35700  -1.89500 
C      6.0     0.73900   0.59300   2.47200 
H      1.0     0.97500  -0.00100   3.35000 
H      1.0     1.66100   1.01000   2.08100 
H      1.0     0.08000   1.40600   2.75000 
O      8.0    -0.39700   1.72000   0.38300 
H      1.0     0.24700   2.24800  -0.06400 
 $END
 $POINTS
ANGS 3039
  -2.513   0.633   2.027
   2.763  -1.376   1.059
   2.880  -1.372   0.703
   3.028  -1.028   0.703
   2.948  -1.375   0.338
  -0.184  -1.001  -3.146
   0.194  -1.001  -3.146
   0.005  -0.662  -3.248
  -1.681  -1.049   3.538
  -1.533  -1.331   3.538
  -1.342  -1.586   3.538
  -1.112  -1.807   3.538
  -0.850  -1.988   3.538
  -0.562  -2.124   3.538
  -1.997  -0.749   3.304
  -1.905  -1.055   3.304
  -1.769  -1.344   3.304
  -1.593  -1.611   3.304
  -1.379  -1.849   3.304
  -1.134  -2.053   3.304
  -0.861  -2.220   3.304
  -0.567  -2.345   3.304
  -0.258  -2.426   3.304
   0.060  -2.461   3.304
  -2.226  -0.115   3.048
  -2.226  -0.431   3.048
  -2.183  -0.745   3.048
  -2.100  -1.051   3.048
  -1.976  -1.342   3.048
  -1.815  -1.615   3.048
  -1.618  -1.863   3.048
  -1.391  -2.083   3.048
  -1.136  -2.271   3.048
  -0.858  -2.424   3.048
  -0.562  -2.537   3.048
  -0.254  -2.611   3.048
   0.061  -2.643   3.048
   0.377  -2.632   3.048
   0.690  -2.579   3.048
  -2.363   0.043   2.773
  -2.383  -0.273   2.773
  -2.363  -0.589   2.773
  -2.303  -0.900   2.773
  -2.206  -1.202   2.773
  -2.071  -1.488   2.773
  -1.901  -1.756   2.773
  -1.699  -2.000   2.773
  -1.468  -2.217   2.773
  -1.212  -2.403   2.773
  -0.934  -2.556   2.773
  -0.640  -2.672   2.773
  -0.333  -2.751   2.773
  -0.018  -2.791   2.773
   0.298  -2.791   2.773
   0.613  -2.751   2.773
   0.920  -2.672   2.773
   1.214  -2.556   2.773
  -2.426   0.359   2.483
  -2.484   0.046   2.483
  -2.503  -0.273   2.483
  -2.484  -0.592   2.483
  -2.426  -0.905   2.483
  -2.331  -1.210   2.483
  -2.200  -1.501   2.483
  -2.035  -1.774   2.483
  -1.838  -2.026   2.483
  -1.613  -2.251   2.483
  -1.361  -2.448   2.483
  -1.088  -2.613   2.483
  -0.797  -2.744   2.483
  -0.492  -2.839   2.483
  -0.179  -2.897   2.483
   0.140  -2.916   2.483
   0.459  -2.897   2.483
   0.772  -2.839   2.483
   1.077  -2.744   2.483
   1.368  -2.613   2.483
   1.641  -2.448   2.483
  -2.425   0.661   2.181
  -2.516   0.357   2.181
  -2.571   0.044   2.181
  -2.590  -0.273   2.181
  -2.571  -0.590   2.181
  -2.516  -0.903   2.181
  -2.425  -1.207   2.181
  -2.299  -1.498   2.181
  -2.141  -1.773   2.181
  -1.951  -2.028   2.181
  -1.733  -2.259   2.181
  -1.490  -2.463   2.181
  -1.225  -2.637   2.181
  -0.941  -2.780   2.181
   1.221  -2.780   2.181
   1.505  -2.637   2.181
   1.770  -2.463   2.181
   2.013  -2.259   2.181
  -2.602  -0.747   1.872
  -2.530  -1.057   1.872
  -2.423  -1.356   1.872
  -2.283  -1.641   1.872
  -2.111  -1.908   1.872
  -1.910  -2.154   1.872
  -1.682  -2.376   1.872
   2.079  -2.268   1.872
   2.294  -2.034   1.872
   2.329  -2.019   1.558
   3.212  -0.765   0.608
   3.355  -0.483   0.608
   3.459  -0.183   0.608
   3.695   0.443   0.333
   3.675   0.759   0.333
   3.615   1.070   0.333
   3.011  -1.284   0.333
   3.213  -1.040   0.333
   3.383  -0.772   0.333
   3.518  -0.486   0.333
   3.615  -0.184   0.333
   3.675   0.127   0.333
   3.815   0.443   0.043
   3.796   0.762   0.043
   3.738   1.075   0.043
   3.643   1.380   0.043
   3.512   1.671   0.043
   3.347   1.944   0.043
   3.150   2.196   0.043
   2.925   2.421   0.043
   3.150  -1.310   0.043
   3.347  -1.058   0.043
   3.512  -0.785   0.043
   3.643  -0.494   0.043
   3.738  -0.189   0.043
   3.796   0.124   0.043
   3.902   0.443  -0.259
   3.883   0.760  -0.259
   3.828   1.073  -0.259
   3.737   1.377  -0.259
   3.611   1.668  -0.259
   3.453   1.943  -0.259
   3.263   2.198  -0.259
   3.045   2.429  -0.259
   3.045  -1.543  -0.259
   3.263  -1.312  -0.259
   3.453  -1.057  -0.259
   3.611  -0.782  -0.259
   3.737  -0.491  -0.259
   3.828  -0.187  -0.259
   3.883   0.126  -0.259
   3.954   0.443  -0.568
   3.936   0.760  -0.568
   3.882   1.073  -0.568
   3.793   1.378  -0.568
   3.669   1.671  -0.568
   3.513   1.947  -0.568
   3.326   2.204  -0.568
   3.111   2.438  -0.568
   2.871   2.646  -0.568
   3.111  -1.552  -0.568
   3.326  -1.318  -0.568
   3.513  -1.061  -0.568
   3.669  -0.785  -0.568
   3.793  -0.492  -0.568
   3.882  -0.187  -0.568
   3.936   0.126  -0.568
   3.972   0.443  -0.882
   3.954   0.757  -0.882
   3.902   1.066  -0.882
   3.815   1.368  -0.882
   3.695   1.658  -0.882
   3.543   1.933  -0.882
   3.361   2.189  -0.882
   3.152   2.423  -0.882
   2.918   2.632  -0.882
   2.662   2.814  -0.882
   3.152  -1.537  -0.882
   3.361  -1.303  -0.882
   3.543  -1.047  -0.882
   3.695  -0.772  -0.882
   3.815  -0.482  -0.882
   3.902  -0.180  -0.882
   3.954   0.129  -0.882
   3.954   0.443  -1.195
   3.936   0.760  -1.195
   3.882   1.073  -1.195
   3.793   1.378  -1.195
   3.669   1.671  -1.195
   3.513   1.947  -1.195
   3.326   2.204  -1.195
   3.111   2.438  -1.195
   2.871   2.646  -1.195
   2.609   2.826  -1.195
   2.871  -1.760  -1.195
   3.111  -1.552  -1.195
   3.326  -1.318  -1.195
   3.513  -1.061  -1.195
   3.669  -0.785  -1.195
   3.793  -0.492  -1.195
   3.882  -0.187  -1.195
   3.936   0.126  -1.195
   3.902   0.443  -1.505
   3.883   0.760  -1.505
   3.828   1.073  -1.505
   3.737   1.377  -1.505
   3.611   1.668  -1.505
   3.453   1.943  -1.505
   3.263   2.198  -1.505
   3.045   2.429  -1.505
   2.802   2.633  -1.505
   2.537   2.807  -1.505
   2.802  -1.747  -1.505
   3.045  -1.543  -1.505
   3.263  -1.312  -1.505
   3.453  -1.057  -1.505
   3.611  -0.782  -1.505
   3.737  -0.491  -1.505
   3.828  -0.187  -1.505
   3.883   0.126  -1.505
   3.815   0.443  -1.807
   3.796   0.762  -1.807
   3.738   1.075  -1.807
   3.643   1.380  -1.807
   3.512   1.671  -1.807
   3.347   1.944  -1.807
   3.150   2.196  -1.807
   2.925   2.421  -1.807
   2.673   2.618  -1.807
   2.400   2.783  -1.807
   2.109   2.914  -1.807
   2.673  -1.732  -1.807
   2.925  -1.535  -1.807
   3.150  -1.310  -1.807
   3.347  -1.058  -1.807
   3.512  -0.785  -1.807
   3.643  -0.494  -1.807
   3.738  -0.189  -1.807
   3.796   0.124  -1.807
   3.695   0.443  -2.097
   3.675   0.759  -2.097
   3.615   1.070  -2.097
   3.518   1.372  -2.097
   3.383   1.658  -2.097
   3.213   1.926  -2.097
   3.011   2.170  -2.097
   2.780   2.387  -2.097
   2.524   2.573  -2.097
   2.246   2.726  -2.097
   1.952   2.842  -2.097
   2.524  -1.687  -2.097
   2.780  -1.501  -2.097
   3.011  -1.284  -2.097
   3.213  -1.040  -2.097
   3.383  -0.772  -2.097
   3.518  -0.486  -2.097
   3.615  -0.184  -2.097
   3.675   0.127  -2.097
   3.543   0.443  -2.372
   3.522   0.759  -2.372
   3.459   1.069  -2.372
   3.355   1.369  -2.372
   3.212   1.651  -2.372
   3.033   1.912  -2.372
   2.820   2.147  -2.372
   2.578   2.352  -2.372
   2.311   2.522  -2.372
   2.024   2.655  -2.372
   1.722   2.749  -2.372
   1.409   2.802  -2.372
   2.311  -1.636  -2.372
   2.578  -1.466  -2.372
   2.820  -1.261  -2.372
   3.033  -1.026  -2.372
   3.212  -0.765  -2.372
   3.355  -0.483  -2.372
   3.459  -0.183  -2.372
   3.522   0.127  -2.372
   3.361   0.443  -2.628
   3.338   0.762  -2.628
   3.268   1.074  -2.628
   3.154   1.372  -2.628
   2.998   1.651  -2.628
   2.802   1.904  -2.628
   2.572   2.126  -2.628
   2.312   2.312  -2.628
   2.028   2.458  -2.628
   1.726   2.561  -2.628
   1.411   2.619  -2.628
   1.092   2.631  -2.628
   0.774   2.596  -2.628
   1.726  -1.675  -2.628
   2.028  -1.572  -2.628
   2.312  -1.426  -2.628
   2.572  -1.240  -2.628
   2.802  -1.018  -2.628
   2.998  -0.765  -2.628
   3.154  -0.486  -2.628
   3.268  -0.188  -2.628
   3.338   0.124  -2.628
   3.152   0.443  -2.862
   3.126   0.761  -2.862
   3.050   1.070  -2.862
   2.925   1.363  -2.862
   2.755   1.632  -2.862
   2.544   1.871  -2.862
   2.297   2.072  -2.862
   2.021   2.232  -2.862
   1.723   2.345  -2.862
   1.411   2.408  -2.862
   1.092   2.421  -2.862
   0.776   2.383  -2.862
   1.411  -1.522  -2.862
   1.723  -1.459  -2.862
   2.021  -1.346  -2.862
   2.297  -1.186  -2.862
   2.544  -0.985  -2.862
   2.755  -0.746  -2.862
   2.925  -0.477  -2.862
   3.050  -0.184  -2.862
   3.126   0.125  -2.862
   2.918   0.443  -3.071
   2.888   0.764  -3.071
   2.800   1.074  -3.071
   2.656   1.362  -3.071
   2.462   1.619  -3.071
   2.224   1.836  -3.071
   1.950   2.006  -3.071
   1.650   2.122  -3.071
   1.333   2.181  -3.071
   1.011   2.181  -3.071
   0.694  -1.236  -3.071
   1.011  -1.295  -3.071
   1.333  -1.295  -3.071
   1.650  -1.236  -3.071
   1.950  -1.120  -3.071
   2.224  -0.950  -3.071
   2.462  -0.733  -3.071
   2.656  -0.476  -3.071
   2.800  -0.188  -3.071
   2.888   0.122  -3.071
   2.662   0.443  -3.253
   2.627   0.763  -3.253
   2.524   1.069  -3.253
   2.358   1.345  -3.253
   2.136   1.578  -3.253
   1.870   1.759  -3.253
   1.571   1.878  -3.253
   1.253   1.931  -3.253
   0.931   1.913  -3.253
   0.336  -0.790  -3.253
   0.621  -0.941  -3.253
   0.931  -1.027  -3.253
   1.253  -1.045  -3.253
   1.571  -0.992  -3.253
   1.870  -0.873  -3.253
   2.136  -0.692  -3.253
   2.358  -0.459  -3.253
   2.524  -0.183  -3.253
   2.627   0.123  -3.253
   2.387   0.443  -3.405
   2.345   0.757  -3.405
   2.224   1.050  -3.405
   2.031   1.302  -3.405
   1.779   1.495  -3.405
   1.486   1.616  -3.405
   1.172   1.658  -3.405
   0.858   1.616  -3.405
   0.313  -0.416  -3.405
   0.565  -0.609  -3.405
   0.858  -0.730  -3.405
   1.172  -0.772  -3.405
   1.486  -0.730  -3.405
   1.779  -0.609  -3.405
   2.031  -0.416  -3.405
   2.224  -0.164  -3.405
   2.345   0.129  -3.405
   2.097   0.443  -3.525
   2.041   0.759  -3.525
   1.880   1.037  -3.525
   1.634   1.244  -3.525
   1.333   1.354  -3.525
   1.011   1.354  -3.525
   0.710   1.244  -3.525
   0.464  -0.151  -3.525
   0.710  -0.358  -3.525
   1.011  -0.468  -3.525
   1.333  -0.468  -3.525
   1.634  -0.358  -3.525
   1.880  -0.151  -3.525
   2.041   0.127  -3.525
   1.795   0.443  -3.612
   1.712   0.755  -3.612
   1.484   0.983  -3.612
   1.172   1.066  -3.612
   0.860   0.983  -3.612
   0.632   0.755  -3.612
   0.549   0.443  -3.612
   0.632   0.131  -3.612
   0.860  -0.097  -3.612
   1.172  -0.180  -3.612
   1.484  -0.097  -3.612
   1.712   0.131  -3.612
   1.486   0.443  -3.664
   1.329   0.715  -3.664
   1.015   0.715  -3.664
   0.858   0.443  -3.664
   1.015   0.171  -3.664
   1.329   0.171  -3.664
   1.172   0.443  -3.682
  -0.436  -2.995   2.193
  -0.118  -3.084   2.193
   0.212  -3.102   2.193
   0.537  -3.048   2.193
   0.844  -2.926   2.193
  -1.193  -2.783   2.007
  -0.949  -3.005   2.007
  -0.669  -3.179   2.007
  -0.361  -3.298   2.007
  -0.036  -3.359   2.007
   0.294  -3.359   2.007
   0.619  -3.298   2.007
   0.927  -3.179   2.007
   1.207  -3.005   2.007
   1.451  -2.783   2.007
  -1.738  -2.372   1.792
  -1.586  -2.662   1.792
  -1.390  -2.923   1.792
  -1.154  -3.149   1.792
  -0.886  -3.335   1.792
  -0.591  -3.475   1.792
  -0.277  -3.565   1.792
   0.047  -3.605   1.792
   0.374  -3.592   1.792
   0.694  -3.526   1.792
   0.999  -3.410   1.792
   1.282  -3.247   1.792
   1.535  -3.041   1.792
   1.751  -2.796   1.792
   1.926  -2.520   1.792
  -2.061  -2.065   1.552
  -1.967  -2.379   1.552
  -1.828  -2.675   1.552
  -1.647  -2.948   1.552
  -1.428  -3.192   1.552
  -1.177  -3.402   1.552
  -0.897  -3.573   1.552
  -0.596  -3.701   1.552
  -0.279  -3.784   1.552
   0.047  -3.819   1.552
   0.374  -3.807   1.552
   0.697  -3.748   1.552
   1.007  -3.642   1.552
   1.298  -3.492   1.552
   1.564  -3.302   1.552
   1.800  -3.074   1.552
   2.000  -2.815   1.552
   2.161  -2.529   1.552
   2.278  -2.223   1.552
  -2.252  -2.061   1.290
  -2.167  -2.374   1.290
  -2.040  -2.673   1.290
  -1.874  -2.952   1.290
  -1.673  -3.207   1.290
  -1.440  -3.433   1.290
  -1.179  -3.625   1.290
  -0.894  -3.781   1.290
  -0.591  -3.898   1.290
  -0.275  -3.973   1.290
   0.048  -4.006   1.290
   0.372  -3.995   1.290
   0.692  -3.941   1.290
   1.002  -3.845   1.290
   1.297  -3.708   1.290
   1.570  -3.533   1.290
   1.818  -3.324   1.290
   2.036  -3.083   1.290
   2.220  -2.815   1.290
   2.366  -2.526   1.290
   2.473  -2.219   1.290
   2.537  -1.901   1.290
   2.715  -1.577   1.008
  -2.275  -2.529   1.008
  -2.137  -2.823   1.008
  -1.963  -3.097   1.008
  -1.756  -3.347   1.008
  -1.519  -3.569   1.008
  -1.257  -3.760   1.008
  -0.972  -3.917   1.008
  -0.670  -4.036   1.008
  -0.356  -4.117   1.008
  -0.033  -4.158   1.008
   0.291  -4.158   1.008
   0.614  -4.117   1.008
   0.928  -4.036   1.008
   1.230  -3.917   1.008
   1.515  -3.760   1.008
   1.777  -3.569   1.008
   2.014  -3.347   1.008
   2.221  -3.097   1.008
   2.395  -2.823   1.008
   2.533  -2.529   1.008
   2.634  -2.220   1.008
   2.694  -1.901   1.008
   2.838  -1.577   0.711
  -2.404  -2.538   0.711
  -2.270  -2.836   0.711
  -2.100  -3.116   0.711
  -1.899  -3.373   0.711
  -1.667  -3.605   0.711
  -1.410  -3.806   0.711
  -1.130  -3.976   0.711
  -0.832  -4.110   0.711
  -0.519  -4.207   0.711
  -0.198  -4.266   0.711
   0.129  -4.286   0.711
   0.456  -4.266   0.711
   0.777  -4.207   0.711
   1.090  -4.110   0.711
   1.388  -3.976   0.711
   1.668  -3.806   0.711
   1.925  -3.605   0.711
   2.157  -3.373   0.711
   2.358  -3.116   0.711
   2.528  -2.836   0.711
   2.662  -2.538   0.711
   2.759  -2.225   0.711
   2.818  -1.904   0.711
   2.927  -1.577   0.402
  -2.500  -2.534   0.402
  -2.371  -2.833   0.402
  -2.209  -3.115   0.402
  -2.014  -3.376   0.402
  -1.791  -3.612   0.402
  -1.542  -3.821   0.402
  -1.270  -4.000   0.402
  -0.979  -4.146   0.402
  -0.673  -4.257   0.402
  -0.357  -4.333   0.402
  -0.034  -4.370   0.402
   0.292  -4.370   0.402
   0.615  -4.333   0.402
   0.931  -4.257   0.402
   1.237  -4.146   0.402
   1.528  -4.000   0.402
   1.800  -3.821   0.402
   2.049  -3.612   0.402
   2.272  -3.376   0.402
   2.467  -3.115   0.402
   2.629  -2.833   0.402
   2.758  -2.534   0.402
   2.852  -2.222   0.402
   2.908  -1.902   0.402
   2.981  -1.577   0.084
  -2.498  -2.687   0.084
  -2.354  -2.979   0.084
  -2.178  -3.253   0.084
  -1.972  -3.505   0.084
  -1.739  -3.732   0.084
  -1.481  -3.931   0.084
  -1.202  -4.099   0.084
  -0.906  -4.235   0.084
  -0.596  -4.335   0.084
  -0.277  -4.400   0.084
   0.048  -4.428   0.084
   0.373  -4.418   0.084
   0.695  -4.372   0.084
   1.010  -4.289   0.084
   1.314  -4.171   0.084
   1.602  -4.019   0.084
   1.871  -3.835   0.084
   2.117  -3.622   0.084
   2.337  -3.382   0.084
   2.528  -3.119   0.084
   2.688  -2.835   0.084
   2.815  -2.535   0.084
   2.907  -2.223   0.084
   2.962  -1.902   0.084
  -2.457  -2.822  -0.237
  -2.301  -3.104  -0.237
  -2.115  -3.366  -0.237
  -1.900  -3.606  -0.237
  -1.660  -3.821  -0.237
  -1.398  -4.007  -0.237
  -1.116  -4.163  -0.237
  -0.819  -4.286  -0.237
  -0.510  -4.375  -0.237
  -0.192  -4.429  -0.237
   0.129  -4.447  -0.237
   0.450  -4.429  -0.237
   0.768  -4.375  -0.237
   1.077  -4.286  -0.237
   1.374  -4.163  -0.237
   1.656  -4.007  -0.237
   1.918  -3.821  -0.237
   2.158  -3.606  -0.237
   2.373  -3.366  -0.237
   2.559  -3.104  -0.237
   2.715  -2.822  -0.237
   2.838  -2.525  -0.237
   2.927  -2.216  -0.237
   2.981  -1.898  -0.237
  -2.354  -2.979  -0.558
  -2.178  -3.253  -0.558
  -1.972  -3.505  -0.558
  -1.739  -3.732  -0.558
  -1.481  -3.931  -0.558
  -1.202  -4.099  -0.558
  -0.906  -4.235  -0.558
  -0.596  -4.335  -0.558
  -0.277  -4.400  -0.558
   0.048  -4.428  -0.558
   0.373  -4.418  -0.558
   0.695  -4.372  -0.558
   1.010  -4.289  -0.558
   1.314  -4.171  -0.558
   1.602  -4.019  -0.558
   1.871  -3.835  -0.558
   2.117  -3.622  -0.558
   2.337  -3.382  -0.558
   2.528  -3.119  -0.558
   2.688  -2.835  -0.558
   2.815  -2.535  -0.558
   2.907  -2.223  -0.558
   2.962  -1.902  -0.558
  -2.371  -2.833  -0.876
  -2.209  -3.115  -0.876
  -2.014  -3.376  -0.876
  -1.791  -3.612  -0.876
  -1.542  -3.821  -0.876
  -1.270  -4.000  -0.876
  -0.979  -4.146  -0.876
  -0.673  -4.257  -0.876
  -0.357  -4.333  -0.876
  -0.034  -4.370  -0.876
   0.292  -4.370  -0.876
   0.615  -4.333  -0.876
   0.931  -4.258  -0.876
   1.237  -4.146  -0.876
   1.528  -4.000  -0.876
   1.800  -3.821  -0.876
   2.049  -3.612  -0.876
   2.272  -3.376  -0.876
   2.467  -3.115  -0.876
   2.629  -2.833  -0.876
   2.758  -2.534  -0.876
   2.852  -2.222  -0.876
   2.908  -1.902  -0.876
  -2.270  -2.836  -1.185
  -2.100  -3.116  -1.185
  -1.899  -3.373  -1.185
  -1.667  -3.605  -1.185
  -1.410  -3.806  -1.185
  -1.130  -3.976  -1.185
  -0.832  -4.110  -1.185
  -0.519  -4.207  -1.185
  -0.198  -4.266  -1.185
   0.129  -4.286  -1.185
   0.456  -4.266  -1.185
   0.777  -4.207  -1.185
   1.090  -4.110  -1.185
   1.388  -3.976  -1.185
   1.668  -3.806  -1.185
   1.925  -3.605  -1.185
   2.157  -3.373  -1.185
   2.358  -3.116  -1.185
   2.528  -2.836  -1.185
   2.662  -2.538  -1.185
   2.759  -2.225  -1.185
   2.818  -1.904  -1.185
  -2.137  -2.823  -1.482
  -1.963  -3.097  -1.482
  -1.756  -3.347  -1.482
  -1.519  -3.569  -1.482
  -1.257  -3.760  -1.482
  -0.972  -3.917  -1.482
  -0.670  -4.036  -1.482
  -0.356  -4.117  -1.482
  -0.033  -4.158  -1.482
   0.291  -4.158  -1.482
   0.614  -4.117  -1.482
   0.928  -4.036  -1.482
   1.230  -3.917  -1.482
   1.515  -3.760  -1.482
   1.777  -3.569  -1.482
   2.014  -3.347  -1.482
   2.221  -3.097  -1.482
   2.395  -2.823  -1.482
   2.533  -2.529  -1.482
   2.634  -2.220  -1.482
   2.694  -1.901  -1.482
  -2.040  -2.673  -1.764
  -1.874  -2.952  -1.764
  -1.673  -3.207  -1.764
  -1.440  -3.433  -1.764
  -1.179  -3.625  -1.764
  -0.894  -3.781  -1.764
  -0.591  -3.898  -1.764
  -0.275  -3.973  -1.764
   0.048  -4.006  -1.764
   0.372  -3.995  -1.764
   0.692  -3.941  -1.764
   1.002  -3.845  -1.764
   1.297  -3.708  -1.764
   1.570  -3.533  -1.764
   1.818  -3.324  -1.764
   2.036  -3.083  -1.764
   2.220  -2.815  -1.764
   2.366  -2.526  -1.764
   2.473  -2.219  -1.764
   2.537  -1.901  -1.764
  -1.828  -2.675  -2.026
  -1.647  -2.948  -2.026
  -1.428  -3.192  -2.026
  -1.177  -3.402  -2.026
  -0.897  -3.573  -2.026
  -0.596  -3.701  -2.026
  -0.279  -3.784  -2.026
   0.047  -3.819  -2.026
   0.374  -3.807  -2.026
   0.697  -3.748  -2.026
   1.007  -3.642  -2.026
   1.298  -3.492  -2.026
   1.564  -3.302  -2.026
   1.800  -3.074  -2.026
   2.000  -2.815  -2.026
   2.161  -2.529  -2.026
   2.278  -2.223  -2.026
   2.349  -1.904  -2.026
  -1.586  -2.662  -2.266
  -1.390  -2.923  -2.266
  -1.154  -3.149  -2.266
  -0.886  -3.335  -2.266
  -0.591  -3.475  -2.266
  -0.277  -3.565  -2.266
   0.047  -3.605  -2.266
   0.374  -3.592  -2.266
   0.694  -3.526  -2.266
   0.999  -3.410  -2.266
   1.282  -3.247  -2.266
   1.535  -3.041  -2.266
   1.751  -2.796  -2.266
   1.926  -2.520  -2.266
   2.054  -2.220  -2.266
   2.132  -1.903  -2.266
  -1.540  -2.223  -2.481
  -1.392  -2.519  -2.481
  -1.193  -2.783  -2.481
  -0.949  -3.005  -2.481
  -0.669  -3.179  -2.481
  -0.361  -3.298  -2.481
  -0.036  -3.359  -2.481
   0.294  -3.359  -2.481
   0.619  -3.298  -2.481
   0.927  -3.179  -2.481
   1.207  -3.005  -2.481
   1.451  -2.783  -2.481
   1.650  -2.519  -2.481
   1.798  -2.223  -2.481
   1.888  -1.906  -2.481
  -1.318  -2.065  -2.667
  -1.179  -2.364  -2.667
  -0.980  -2.627  -2.667
  -0.728  -2.841  -2.667
  -0.436  -2.995  -2.667
  -0.118  -3.084  -2.667
   0.212  -3.102  -2.667
   0.537  -3.048  -2.667
   0.844  -2.926  -2.667
   1.118  -2.741  -2.667
   1.345  -2.501  -2.667
   1.515  -2.218  -2.667
   1.620  -1.905  -2.667
   1.374  -1.577  -2.823
  -1.074  -1.899  -2.823
  -0.949  -2.200  -2.823
  -0.752  -2.458  -2.823
  -0.494  -2.655  -2.823
  -0.193  -2.780  -2.823
   0.129  -2.822  -2.823
   0.451  -2.780  -2.823
   0.752  -2.655  -2.823
   1.010  -2.458  -2.823
   1.207  -2.200  -2.823
   1.332  -1.899  -2.823
   1.077  -1.577  -2.946
  -0.819  -1.577  -2.946
  -0.762  -1.901  -2.946
  -0.597  -2.186  -2.946
  -0.345  -2.398  -2.946
  -0.036  -2.511  -2.946
   0.294  -2.511  -2.946
   0.603  -2.398  -2.946
   0.855  -2.186  -2.946
   1.020  -1.901  -2.946
   0.768  -1.577  -3.035
  -0.424  -1.258  -3.035
  -0.510  -1.577  -3.035
  -0.424  -1.896  -3.035
  -0.190  -2.130  -3.035
   0.129  -2.216  -3.035
   0.448  -2.130  -3.035
   0.682  -1.896  -3.035
   0.450  -1.577  -3.089
   0.290  -1.299  -3.089
  -0.032  -1.299  -3.089
  -0.192  -1.577  -3.089
  -0.032  -1.855  -3.089
   0.290  -1.855  -3.089
   0.129  -1.577  -3.107
  -2.675   0.190   1.895
  -2.717  -0.124   1.895
  -2.675  -0.438   1.895
  -2.778   0.644   1.743
  -2.914   0.352   1.743
  -2.983   0.037   1.743
  -2.983  -0.285   1.743
  -2.914  -0.600   1.743
  -2.778  -0.892   1.743
  -2.584  -1.148   1.743
  -3.130   0.507   1.561
  -3.218   0.197   1.561
  -3.248  -0.124   1.561
  -3.218  -0.445   1.561
  -3.130  -0.755   1.561
  -2.986  -1.043   1.561
  -2.792  -1.300   1.561
  -2.554  -1.517   1.561
  -3.475   0.035   1.352
  -3.475  -0.283   1.352
  -3.424  -0.598   1.352
  -3.323  -0.900   1.352
  -3.175  -1.182   1.352
  -2.984  -1.437   1.352
  -2.754  -1.658   1.352
  -2.492  -1.839   1.352
  -3.685  -0.284   1.118
  -3.639  -0.600   1.118
  -3.547  -0.906   1.118
  -3.411  -1.195   1.118
  -3.235  -1.462   1.118
  -3.021  -1.700   1.118
  -2.776  -1.904   1.118
  -2.503  -2.071   1.118
  -3.825  -0.596   0.862
  -3.742  -0.902   0.862
  -3.618  -1.193   0.862
  -3.457  -1.466   0.862
  -3.260  -1.714   0.862
  -3.033  -1.934   0.862
  -2.778  -2.122   0.862
  -2.500  -2.275   0.862
  -3.945  -0.751   0.587
  -3.848  -1.053   0.587
  -3.713  -1.339   0.587
  -3.543  -1.607   0.587
  -3.341  -1.851   0.587
  -3.110  -2.068   0.587
  -2.854  -2.254   0.587
  -2.576  -2.407   0.587
  -3.973  -1.061   0.297
  -3.842  -1.352   0.297
  -3.677  -1.625   0.297
  -3.480  -1.877   0.297
  -3.255  -2.102   0.297
  -3.003  -2.299   0.297
  -2.730  -2.464   0.297
  -3.941  -1.349  -0.005
  -3.783  -1.624  -0.005
  -3.593  -1.879  -0.005
  -3.375  -2.110  -0.005
  -3.132  -2.314  -0.005
  -2.867  -2.488  -0.005
  -2.583  -2.631  -0.005
  -3.925  -1.492  -0.314
  -3.753  -1.759  -0.314
  -3.552  -2.005  -0.314
  -3.324  -2.227  -0.314
  -3.073  -2.421  -0.314
  -2.800  -2.585  -0.314
  -2.511  -2.717  -0.314
  -3.691  -1.870  -0.628
  -3.482  -2.104  -0.628
  -3.248  -2.313  -0.628
  -2.992  -2.495  -0.628
  -2.717  -2.647  -0.628
  -3.552  -2.005  -0.941
  -3.324  -2.227  -0.941
  -3.073  -2.421  -0.941
  -2.800  -2.585  -0.941
  -2.511  -2.717  -0.941
  -3.132  -2.314  -1.251
  -2.867  -2.488  -1.251
  -2.583  -2.631  -1.251
  -3.003  -2.299  -1.553
  -2.730  -2.464  -1.553
  -2.439  -2.595  -1.553
  -2.854  -2.254  -1.843
  -2.576  -2.407  -1.843
  -2.282  -2.523  -1.843
  -2.500  -2.275  -2.118
  -2.204  -2.388  -2.118
  -1.896  -2.462  -2.118
  -2.209  -2.196  -2.374
  -1.900  -2.277  -2.374
  -1.898  -2.064  -2.608
  -1.582  -2.102  -2.608
  -1.663  -1.862  -2.817
  -1.341  -1.862  -2.817
  -0.804  -1.440  -2.999
  -3.451   0.508   1.416
  -3.715   0.329   1.248
  -4.052   0.501   1.047
  -3.954   0.158   1.047
  -3.795  -0.161   1.047
  -4.280   0.331   0.815
  -4.169  -0.003   0.815
  -4.005  -0.316   0.815
  -4.518   0.329   0.556
  -4.416  -0.010   0.556
  -4.266  -0.330   0.556
  -4.070  -0.625   0.556
  -4.771   0.681   0.272
  -4.724   0.333   0.272
  -4.632  -0.005   0.272
  -4.495  -0.328   0.272
  -4.316  -0.630   0.272
  -4.099  -0.905   0.272
  -4.945   0.856  -0.032
  -4.923   0.506  -0.032
  -4.857   0.161  -0.032
  -4.749  -0.172  -0.032
  -4.600  -0.490  -0.032
  -4.412  -0.786  -0.032
  -4.188  -1.056  -0.032
  -5.078   0.856  -0.353
  -5.057   0.503  -0.353
  -5.154   1.207  -0.687
  -5.078   1.880  -1.377
  -1.540   3.875  -1.724
  -4.990   2.055  -1.724
  -1.976   3.873  -2.067
  -4.677   2.517  -2.067
  -4.853   2.212  -2.067
  -2.505   3.761  -2.401
  -2.852   3.697  -2.401
  -3.190   3.592  -2.401
  -3.512   3.447  -2.401
  -3.814   3.264  -2.401
  -4.092   3.046  -2.401
  -4.342   2.796  -2.401
  -4.560   2.518  -2.401
  -4.743   2.216  -2.401
  -2.675   3.600  -2.722
  -3.015   3.512  -2.722
  -3.341   3.383  -2.722
  -3.649   3.214  -2.722
  -3.932   3.008  -2.722
  -4.188   2.768  -2.722
  -4.412   2.498  -2.722
  -1.977  -1.931  -2.722
  -2.930   3.363  -3.026
  -3.257   3.237  -3.026
  -3.564   3.068  -3.026
  -3.847   2.860  -3.026
  -4.099   2.617  -3.026
  -4.316   2.342  -3.026
  -1.889  -1.756  -3.026
  -1.544  -1.697  -3.026
  -1.209  -1.593  -3.026
  -0.891  -1.446  -3.026
  -0.595  -1.257  -3.026
  -2.935   3.150  -3.310
  -3.260   3.011  -3.310
  -3.562   2.827  -3.310
  -3.834   2.601  -3.310
  -4.070   2.337  -3.310
  -1.887  -1.553  -3.310
  -1.539  -1.489  -3.310
  -1.204  -1.375  -3.310
  -0.889  -1.213  -3.310
  -0.602  -1.007  -3.310
  -0.347  -0.761  -3.310
  -2.929   2.906  -3.569
  -3.248   2.754  -3.569
  -3.538   2.554  -3.569
  -3.793   2.310  -3.569
  -1.888  -1.320  -3.569
  -1.542  -1.249  -3.569
  -1.212  -1.124  -3.569
  -0.907  -0.948  -3.569
  -0.634  -0.725  -3.569
  -3.014   2.586  -3.801
  -3.317   2.398  -3.801
  -3.580   2.158  -3.801
  -1.623  -1.003  -3.801
  -1.290  -0.874  -3.801
  -0.987  -0.686  -3.801
  -3.078   2.221  -4.002
  -3.349   1.990  -4.002
  -1.711  -0.733  -4.002
  -1.379  -0.601  -4.002
  -3.103   1.807  -4.170
  -1.804  -0.443  -4.170
  -1.479  -0.309  -4.170
  -2.936   1.514  -4.303
  -1.974  -0.152  -4.303
  -2.749   1.201  -4.399
  -2.152   0.166  -4.399
  -2.840   1.645   1.833
  -2.838   2.146   1.784
  -3.050   1.934   1.784
  -3.128   1.645   1.784
  -3.050   1.356   1.784
  -2.838   1.144   1.784
  -2.978   2.389   1.703
  -3.207   2.197   1.703
  -3.356   1.939   1.703
  -3.408   1.645   1.703
  -3.356   1.351   1.703
  -3.207   1.093   1.703
  -2.978   0.901   1.703
  -2.841   2.735   1.592
  -3.113   2.622   1.592
  -3.347   2.443   1.592
  -3.526   2.209   1.592
  -3.639   1.937   1.592
  -3.677   1.645   1.592
  -3.639   1.353   1.592
  -3.526   1.081   1.592
  -3.347   0.847   1.592
  -3.113   0.668   1.592
  -2.773   3.010   1.450
  -3.061   2.930   1.450
  -3.325   2.790   1.450
  -3.553   2.596   1.450
  -3.734   2.358   1.450
  -3.860   2.087   1.450
  -3.924   1.795   1.450
  -3.924   1.495   1.450
  -3.860   1.203   1.450
  -3.734   0.932   1.450
  -3.553   0.694   1.450
  -2.699   3.259   1.282
  -2.993   3.204   1.282
  -3.272   3.096   1.282
  -3.526   2.939   1.282
  -3.747   2.737   1.282
  -3.927   2.498   1.282
  -4.061   2.231   1.282
  -4.142   1.943   1.282
  -4.170   1.645   1.282
  -4.142   1.347   1.282
  -4.061   1.059   1.282
  -3.927   0.792   1.282
  -3.747   0.553   1.282
  -2.623   3.482   1.087
  -2.917   3.446   1.087
  -3.201   3.364   1.087
  -3.468   3.237   1.087
  -3.712   3.069   1.087
  -3.925   2.864   1.087
  -4.103   2.628   1.087
  -4.240   2.366   1.087
  -4.334   2.085   1.087
  -4.382   1.793   1.087
  -4.382   1.497   1.087
  -4.334   1.205   1.087
  -4.240   0.924   1.087
  -4.103   0.662   1.087
  -2.623   3.676   0.870
  -2.918   3.644   0.870
  -3.205   3.569   0.870
  -3.478   3.453   0.870
  -3.732   3.298   0.870
  -3.960   3.108   0.870
  -4.158   2.887   0.870
  -4.322   2.640   0.870
  -4.448   2.371   0.870
  -4.533   2.087   0.870
  -4.576   1.793   0.870
  -4.576   1.497   0.870
  -4.533   1.203   0.870
  -4.448   0.919   0.870
  -4.322   0.650   0.870
  -2.329   3.835   0.632
  -2.623   3.845   0.632
  -2.915   3.816   0.632
  -3.201   3.748   0.632
  -3.476   3.642   0.632
  -3.734   3.501   0.632
  -3.970   3.326   0.632
  -4.182   3.122   0.632
  -4.364   2.891   0.632
  -4.514   2.638   0.632
  -4.629   2.367   0.632
  -4.706   2.084   0.632
  -4.746   1.792   0.632
  -4.746   1.498   0.632
  -4.706   1.207   0.632
  -4.629   0.923   0.632
  -4.514   0.652   0.632
  -2.110   3.946   0.377
  -2.402   3.983   0.377
  -2.696   3.983   0.377
  -2.988   3.946   0.377
  -3.273   3.873   0.377
  -3.546   3.765   0.377
  -3.804   3.623   0.377
  -4.042   3.450   0.377
  -4.257   3.249   0.377
  -4.444   3.022   0.377
  -4.602   2.774   0.377
  -4.727   2.507   0.377
  -4.818   2.228   0.377
  -4.873   1.939   0.377
  -4.892   1.645   0.377
  -4.873   1.351   0.377
  -4.818   1.062   0.377
  -4.727   0.783   0.377
  -1.962   4.028   0.108
  -2.253   4.081   0.108
  -2.549   4.099   0.108
  -2.845   4.081   0.108
  -3.136   4.028   0.108
  -3.419   3.940   0.108
  -3.689   3.818   0.108
  -3.943   3.665   0.108
  -4.176   3.482   0.108
  -4.386   3.272   0.108
  -4.569   3.039   0.108
  -4.722   2.785   0.108
  -4.844   2.515   0.108
  -4.932   2.232   0.108
  -4.985   1.941   0.108
  -5.003   1.645   0.108
  -4.985   1.349   0.108
  -4.932   1.058   0.108
  -1.822   4.073  -0.172
  -2.109   4.141  -0.172
  -2.402   4.176  -0.172
  -2.696   4.176  -0.172
  -2.989   4.141  -0.172
  -3.276   4.073  -0.172
  -3.553   3.973  -0.172
  -3.816   3.840  -0.172
  -4.063   3.678  -0.172
  -4.288   3.489  -0.172
  -4.491   3.274  -0.172
  -4.667   3.038  -0.172
  -4.814   2.783  -0.172
  -4.931   2.512  -0.172
  -5.015   2.230  -0.172
  -5.067   1.939  -0.172
  -5.084   1.645  -0.172
  -5.067   1.351  -0.172
  -5.015   1.060  -0.172