 $system timlim=999888777
         mwords=100 $end
 $contrl exetyp=run
         runtyp=energy scftyp=rhf
         icharg=-1 mult=1 units=angs coord=unique
         maxit=50 ispher=1 qmttol=1d-6 icut=12 itol=22 $end
 $scf    dirscf=.t. diis=.t. soscf=.f.
         fdiff=.f. conv=1d-6
         npreo(1)=0,-1,1,9999 $end
 $elpot  iepot=1 where=points $end
 $basis  gbasis=n311 ngauss=6
         ndfunc=1 npfunc=1 diffsp=.t. diffs=.t. $end
 $DATA
TS1a_hfd_irc200_all_revmov.pdb
C1
P     15.0     0.00400   0.05100  -0.02200 
O      8.0     0.10400  -0.21100   1.58700 
O      8.0     1.19600   0.32600  -0.87500 
F      9.0     0.06400  -1.60800  -0.13100 
O      8.0    -1.50200  -0.12300  -0.62900 
C      6.0    -2.15200   0.85600  -1.37700 
H      1.0    -2.56200   1.63700  -0.75000 
H      1.0    -1.48900   1.30900  -2.10700 
H      1.0    -2.95700   0.35400  -1.90500 
C      6.0     0.64900   0.70400   2.48600 
H      1.0     0.88200   0.14300   3.38800 
H      1.0     1.56500   1.14300   2.10800 
H      1.0    -0.04500   1.49800   2.72500 
O      8.0    -0.33600   1.73300   0.29100 
H      1.0     0.33500   2.20800  -0.17500 
 $END
 $POINTS
ANGS 3045
   2.762  -1.397   1.068
   2.916  -1.054   1.068
   2.879  -1.393   0.712
  -0.367  -1.332  -2.995
   0.004  -1.381  -2.995
   0.375  -1.332  -2.995
  -0.185  -1.022  -3.137
   0.193  -1.022  -3.137
   0.004  -0.683  -3.239
  -1.717  -0.987   3.567
  -1.569  -1.269   3.567
  -1.378  -1.524   3.567
  -1.148  -1.745   3.567
  -0.886  -1.926   3.567
  -0.598  -2.062   3.567
  -2.033  -0.687   3.333
  -1.941  -0.993   3.333
  -1.805  -1.282   3.333
  -1.629  -1.549   3.333
  -1.415  -1.787   3.333
  -1.170  -1.991   3.333
  -0.897  -2.158   3.333
  -0.603  -2.283   3.333
  -0.294  -2.364   3.333
   0.024  -2.399   3.333
  -2.262  -0.369   3.077
  -2.219  -0.683   3.077
  -2.136  -0.989   3.077
  -2.012  -1.280   3.077
  -1.851  -1.553   3.077
  -1.654  -1.801   3.077
  -1.427  -2.021   3.077
  -1.172  -2.209   3.077
  -0.894  -2.362   3.077
  -0.598  -2.475   3.077
  -0.290  -2.549   3.077
   0.025  -2.581   3.077
   0.341  -2.570   3.077
   0.654  -2.517   3.077
  -2.399   0.105   2.802
  -2.419  -0.211   2.802
  -2.399  -0.527   2.802
  -2.339  -0.838   2.802
  -2.242  -1.140   2.802
  -2.107  -1.426   2.802
  -1.937  -1.694   2.802
  -1.735  -1.938   2.802
  -1.504  -2.155   2.802
  -1.248  -2.341   2.802
  -0.970  -2.494   2.802
  -0.676  -2.610   2.802
  -0.369  -2.689   2.802
  -0.054  -2.729   2.802
   0.262  -2.729   2.802
   0.577  -2.689   2.802
   0.884  -2.610   2.802
   1.178  -2.494   2.802
   1.456  -2.341   2.802
  -2.462   0.421   2.512
  -2.520   0.108   2.512
  -2.539  -0.211   2.512
  -2.520  -0.530   2.512
  -2.462  -0.843   2.512
  -2.367  -1.148   2.512
  -2.236  -1.439   2.512
  -2.071  -1.712   2.512
  -1.874  -1.964   2.512
  -1.649  -2.189   2.512
  -1.397  -2.386   2.512
  -1.124  -2.551   2.512
  -0.833  -2.682   2.512
  -0.528  -2.777   2.512
  -0.215  -2.835   2.512
   0.104  -2.854   2.512
   0.423  -2.835   2.512
   0.736  -2.777   2.512
   1.041  -2.682   2.512
   1.332  -2.551   2.512
   1.605  -2.386   2.512
   1.857  -2.189   2.512
  -2.552   0.419   2.210
  -2.607   0.106   2.210
  -2.626  -0.211   2.210
  -2.607  -0.528   2.210
  -2.552  -0.841   2.210
  -2.461  -1.145   2.210
  -2.335  -1.436   2.210
  -2.177  -1.711   2.210
  -1.987  -1.966   2.210
  -1.769  -2.197   2.210
  -1.526  -2.401   2.210
   1.469  -2.575   2.210
   1.734  -2.401   2.210
   1.977  -2.197   2.210
  -2.638  -0.685   1.901
  -2.566  -0.995   1.901
  -2.459  -1.294   1.901
  -2.319  -1.579   1.901
  -2.147  -1.846   1.901
  -1.946  -2.092   1.901
   2.043  -2.206   1.901
   2.258  -1.972   1.901
   2.475  -1.701   1.587
   3.178  -0.603   0.871
   3.567   0.326   0.615
   3.057  -1.143   0.615
   3.236  -0.882   0.615
   3.379  -0.600   0.615
   3.483  -0.300   0.615
   3.546   0.010   0.615
   3.719   0.326   0.340
   3.699   0.642   0.340
   3.639   0.953   0.340
   3.542   1.255   0.340
   3.035  -1.401   0.340
   3.237  -1.157   0.340
   3.407  -0.889   0.340
   3.542  -0.603   0.340
   3.639  -0.301   0.340
   3.699   0.010   0.340
   3.839   0.326   0.050
   3.820   0.645   0.050
   3.762   0.958   0.050
   3.667   1.263   0.050
   3.536   1.554   0.050
   3.371   1.827   0.050
   3.174   2.079   0.050
   2.949   2.304   0.050
   2.949  -1.652   0.050
   3.174  -1.427   0.050
   3.371  -1.175   0.050
   3.536  -0.902   0.050
   3.667  -0.611   0.050
   3.762  -0.306   0.050
   3.820   0.007   0.050
   3.926   0.326  -0.252
   3.907   0.643  -0.252
   3.852   0.956  -0.252
   3.761   1.260  -0.252
   3.635   1.551  -0.252
   3.477   1.826  -0.252
   3.287   2.081  -0.252
   3.069   2.312  -0.252
   3.069  -1.660  -0.252
   3.287  -1.429  -0.252
   3.477  -1.174  -0.252
   3.635  -0.899  -0.252
   3.761  -0.608  -0.252
   3.852  -0.304  -0.252
   3.907   0.009  -0.252
   3.978   0.326  -0.561
   3.960   0.643  -0.561
   3.906   0.956  -0.561
   3.817   1.261  -0.561
   3.693   1.554  -0.561
   3.537   1.830  -0.561
   3.350   2.087  -0.561
   3.135   2.321  -0.561
   2.895   2.529  -0.561
   2.895  -1.877  -0.561
   3.135  -1.669  -0.561
   3.350  -1.435  -0.561
   3.537  -1.178  -0.561
   3.693  -0.902  -0.561
   3.817  -0.609  -0.561
   3.906  -0.304  -0.561
   3.960   0.009  -0.561
   3.996   0.326  -0.875
   3.978   0.640  -0.875
   3.926   0.949  -0.875
   3.839   1.251  -0.875
   3.719   1.541  -0.875
   3.567   1.816  -0.875
   3.385   2.072  -0.875
   3.176   2.306  -0.875
   2.942   2.515  -0.875
   2.942  -1.863  -0.875
   3.176  -1.654  -0.875
   3.385  -1.420  -0.875
   3.567  -1.164  -0.875
   3.719  -0.889  -0.875
   3.839  -0.599  -0.875
   3.926  -0.297  -0.875
   3.978   0.012  -0.875
   3.978   0.326  -1.188
   3.960   0.643  -1.188
   3.906   0.956  -1.188
   3.817   1.261  -1.188
   3.693   1.554  -1.188
   3.537   1.830  -1.188
   3.350   2.087  -1.188
   3.135   2.321  -1.188
   2.895   2.529  -1.188
   2.895  -1.877  -1.188
   3.135  -1.669  -1.188
   3.350  -1.435  -1.188
   3.537  -1.178  -1.188
   3.693  -0.902  -1.188
   3.817  -0.609  -1.188
   3.906  -0.304  -1.188
   3.960   0.009  -1.188
   3.926   0.326  -1.498
   3.907   0.643  -1.498
   3.852   0.956  -1.498
   3.761   1.260  -1.498
   3.635   1.551  -1.498
   3.477   1.826  -1.498
   3.287   2.081  -1.498
   3.069   2.312  -1.498
   2.826   2.516  -1.498
   2.561   2.690  -1.498
   2.561  -2.038  -1.498
   2.826  -1.864  -1.498
   3.069  -1.660  -1.498
   3.287  -1.429  -1.498
   3.477  -1.174  -1.498
   3.635  -0.899  -1.498
   3.761  -0.608  -1.498
   3.852  -0.304  -1.498
   3.907   0.009  -1.498
   3.839   0.326  -1.800
   3.820   0.645  -1.800
   3.762   0.958  -1.800
   3.667   1.263  -1.800
   3.536   1.554  -1.800
   3.371   1.827  -1.800
   3.174   2.079  -1.800
   2.949   2.304  -1.800
   2.697   2.501  -1.800
   2.424   2.666  -1.800
   2.424  -2.014  -1.800
   2.697  -1.849  -1.800
   2.949  -1.652  -1.800
   3.174  -1.427  -1.800
   3.371  -1.175  -1.800
   3.536  -0.902  -1.800
   3.667  -0.611  -1.800
   3.762  -0.306  -1.800
   3.820   0.007  -1.800
   3.719   0.326  -2.090
   3.699   0.642  -2.090
   3.639   0.953  -2.090
   3.542   1.255  -2.090
   3.407   1.541  -2.090
   3.237   1.809  -2.090
   3.035   2.053  -2.090
   2.804   2.270  -2.090
   2.548   2.456  -2.090
   2.270   2.609  -2.090
   2.270  -1.957  -2.090
   2.548  -1.804  -2.090
   2.804  -1.618  -2.090
   3.035  -1.401  -2.090
   3.237  -1.157  -2.090
   3.407  -0.889  -2.090
   3.542  -0.603  -2.090
   3.639  -0.301  -2.090
   3.699   0.010  -2.090
   3.567   0.326  -2.365
   3.546   0.642  -2.365
   3.483   0.952  -2.365
   3.379   1.252  -2.365
   3.236   1.534  -2.365
   3.057   1.795  -2.365
   2.844   2.030  -2.365
   2.602   2.235  -2.365
   2.335   2.405  -2.365
   2.048   2.538  -2.365
   1.746   2.632  -2.365
   2.048  -1.886  -2.365
   2.335  -1.753  -2.365
   2.602  -1.583  -2.365
   2.844  -1.378  -2.365
   3.057  -1.143  -2.365
   3.236  -0.882  -2.365
   3.379  -0.600  -2.365
   3.483  -0.300  -2.365
   3.546   0.010  -2.365
   3.385   0.326  -2.621
   3.362   0.645  -2.621
   3.292   0.957  -2.621
   3.178   1.255  -2.621
   3.022   1.534  -2.621
   2.826   1.787  -2.621
   2.596   2.009  -2.621
   2.336   2.195  -2.621
   2.052   2.341  -2.621
   1.750   2.444  -2.621
   1.435   2.502  -2.621
   1.750  -1.792  -2.621
   2.052  -1.689  -2.621
   2.336  -1.543  -2.621
   2.596  -1.357  -2.621
   2.826  -1.135  -2.621
   3.022  -0.882  -2.621
   3.178  -0.603  -2.621
   3.292  -0.305  -2.621
   3.362   0.007  -2.621
   3.176   0.326  -2.855
   3.150   0.644  -2.855
   3.074   0.953  -2.855
   2.949   1.246  -2.855
   2.779   1.515  -2.855
   2.568   1.754  -2.855
   2.321   1.955  -2.855
   2.045   2.115  -2.855
   1.747   2.228  -2.855
   1.435   2.291  -2.855
   1.116   2.304  -2.855
   1.116  -1.652  -2.855
   1.435  -1.639  -2.855
   1.747  -1.576  -2.855
   2.045  -1.463  -2.855
   2.321  -1.303  -2.855
   2.568  -1.102  -2.855
   2.779  -0.863  -2.855
   2.949  -0.594  -2.855
   3.074  -0.301  -2.855
   3.150   0.008  -2.855
   2.942   0.326  -3.064
   2.912   0.647  -3.064
   2.824   0.957  -3.064
   2.680   1.245  -3.064
   2.486   1.502  -3.064
   2.248   1.719  -3.064
   1.974   1.889  -3.064
   1.674   2.005  -3.064
   1.357   2.064  -3.064
   1.035   2.064  -3.064
   0.418  -1.237  -3.064
   0.718  -1.353  -3.064
   1.035  -1.412  -3.064
   1.357  -1.412  -3.064
   1.674  -1.353  -3.064
   1.974  -1.237  -3.064
   2.248  -1.067  -3.064
   2.486  -0.850  -3.064
   2.680  -0.593  -3.064
   2.824  -0.305  -3.064
   2.912   0.005  -3.064
   2.686   0.326  -3.246
   2.651   0.646  -3.246
   2.548   0.952  -3.246
   2.382   1.228  -3.246
   2.160   1.461  -3.246
   1.894   1.642  -3.246
   1.595   1.761  -3.246
   1.277   1.814  -3.246
   0.955   1.796  -3.246
   0.114  -0.698  -3.246
   0.360  -0.907  -3.246
   0.645  -1.058  -3.246
   0.955  -1.144  -3.246
   1.277  -1.162  -3.246
   1.595  -1.109  -3.246
   1.894  -0.990  -3.246
   2.160  -0.809  -3.246
   2.382  -0.576  -3.246
   2.548  -0.300  -3.246
   2.651   0.006  -3.246
   2.411   0.326  -3.398
   2.369   0.640  -3.398
   2.248   0.933  -3.398
   2.055   1.185  -3.398
   1.803   1.378  -3.398
   1.510   1.499  -3.398
   1.196   1.541  -3.398
   0.882   1.499  -3.398
   0.144  -0.281  -3.398
   0.337  -0.533  -3.398
   0.589  -0.726  -3.398
   0.882  -0.847  -3.398
   1.196  -0.889  -3.398
   1.510  -0.847  -3.398
   1.803  -0.726  -3.398
   2.055  -0.533  -3.398
   2.248  -0.281  -3.398
   2.369   0.012  -3.398
   2.121   0.326  -3.518
   2.065   0.642  -3.518
   1.904   0.920  -3.518
   1.658   1.127  -3.518
   1.357   1.237  -3.518
   1.035   1.237  -3.518
   0.734   1.127  -3.518
   0.327   0.010  -3.518
   0.488  -0.268  -3.518
   0.734  -0.475  -3.518
   1.035  -0.585  -3.518
   1.357  -0.585  -3.518
   1.658  -0.475  -3.518
   1.904  -0.268  -3.518
   2.065   0.010  -3.518
   1.819   0.326  -3.605
   1.736   0.638  -3.605
   1.508   0.866  -3.605
   1.196   0.949  -3.605
   0.884   0.866  -3.605
   0.656   0.638  -3.605
   0.573   0.326  -3.605
   0.656   0.014  -3.605
   0.884  -0.214  -3.605
   1.196  -0.297  -3.605
   1.508  -0.214  -3.605
   1.736   0.014  -3.605
   1.510   0.326  -3.657
   1.353   0.598  -3.657
   1.039   0.598  -3.657
   0.882   0.326  -3.657
   1.039   0.054  -3.657
   1.353   0.054  -3.657
   1.196   0.326  -3.675
  -0.793  -2.872   2.299
  -0.501  -3.026   2.299
  -0.183  -3.115   2.299
   0.147  -3.133   2.299
   0.472  -3.079   2.299
   0.779  -2.957   2.299
   1.053  -2.772   2.299
  -1.457  -2.550   2.113
  -1.258  -2.814   2.113
  -1.014  -3.036   2.113
  -0.734  -3.210   2.113
  -0.426  -3.329   2.113
  -0.101  -3.390   2.113
   0.229  -3.390   2.113
   0.554  -3.329   2.113
   0.862  -3.210   2.113
   1.142  -3.036   2.113
   1.386  -2.814   2.113
   1.585  -2.550   2.113
  -1.803  -2.403   1.898
  -1.651  -2.693   1.898
  -1.455  -2.954   1.898
  -1.219  -3.180   1.898
  -0.951  -3.366   1.898
  -0.656  -3.506   1.898
  -0.342  -3.596   1.898
  -0.018  -3.636   1.898
   0.309  -3.623   1.898
   0.629  -3.557   1.898
   0.934  -3.441   1.898
   1.217  -3.278   1.898
   1.470  -3.072   1.898
   1.686  -2.827   1.898
   1.861  -2.551   1.898
  -2.126  -2.096   1.658
  -2.032  -2.410   1.658
  -1.893  -2.706   1.658
  -1.712  -2.979   1.658
  -1.493  -3.223   1.658
  -1.242  -3.433   1.658
  -0.962  -3.604   1.658
  -0.661  -3.732   1.658
  -0.344  -3.815   1.658
  -0.018  -3.850   1.658
   0.309  -3.838   1.658
   0.632  -3.779   1.658
   0.942  -3.673   1.658
   1.233  -3.523   1.658
   1.499  -3.333   1.658
   1.735  -3.105   1.658
   1.935  -2.846   1.658
   2.096  -2.560   1.658
   2.213  -2.254   1.658
  -2.317  -2.092   1.396
  -2.232  -2.405   1.396
  -2.105  -2.704   1.396
  -1.939  -2.983   1.396
  -1.738  -3.238   1.396
  -1.505  -3.464   1.396
  -1.244  -3.656   1.396
  -0.959  -3.812   1.396
  -0.656  -3.929   1.396
  -0.340  -4.004   1.396
  -0.017  -4.037   1.396
   0.307  -4.026   1.396
   0.627  -3.972   1.396
   0.937  -3.876   1.396
   1.232  -3.739   1.396
   1.505  -3.564   1.396
   1.753  -3.355   1.396
   1.971  -3.114   1.396
   2.155  -2.846   1.396
   2.301  -2.557   1.396
   2.408  -2.250   1.396
   2.472  -1.932   1.396
   2.650  -1.608   1.114
  -2.441  -2.251   1.114
  -2.340  -2.560   1.114
  -2.202  -2.854   1.114
  -2.028  -3.128   1.114
  -1.821  -3.378   1.114
  -1.584  -3.600   1.114
  -1.322  -3.791   1.114
  -1.037  -3.948   1.114
  -0.735  -4.067   1.114
  -0.421  -4.148   1.114
  -0.098  -4.189   1.114
   0.226  -4.189   1.114
   0.549  -4.148   1.114
   0.863  -4.067   1.114
   1.165  -3.948   1.114
   1.450  -3.791   1.114
   1.712  -3.600   1.114
   1.949  -3.378   1.114
   2.156  -3.128   1.114
   2.330  -2.854   1.114
   2.468  -2.560   1.114
   2.569  -2.251   1.114
   2.629  -1.932   1.114
   2.773  -1.608   0.817
  -2.469  -2.569   0.817
  -2.335  -2.867   0.817
  -2.165  -3.147   0.817
  -1.964  -3.404   0.817
  -1.732  -3.636   0.817
  -1.475  -3.837   0.817
  -1.195  -4.007   0.817
  -0.897  -4.141   0.817
  -0.584  -4.238   0.817
  -0.263  -4.297   0.817
   0.064  -4.317   0.817
   0.391  -4.297   0.817
   0.712  -4.238   0.817
   1.025  -4.141   0.817
   1.323  -4.007   0.817
   1.603  -3.837   0.817
   1.860  -3.636   0.817
   2.092  -3.404   0.817
   2.293  -3.147   0.817
   2.463  -2.867   0.817
   2.597  -2.569   0.817
   2.694  -2.256   0.817
   2.753  -1.935   0.817
   2.862  -1.608   0.508
  -2.565  -2.565   0.508
  -2.436  -2.864   0.508
  -2.274  -3.146   0.508
  -2.079  -3.407   0.508
  -1.856  -3.643   0.508
  -1.607  -3.852   0.508
  -1.335  -4.031   0.508
  -1.044  -4.177   0.508
  -0.738  -4.288   0.508
  -0.422  -4.364   0.508
  -0.099  -4.401   0.508
   0.227  -4.401   0.508
   0.550  -4.364   0.508
   0.866  -4.288   0.508
   1.172  -4.177   0.508
   1.463  -4.031   0.508
   1.735  -3.852   0.508
   1.984  -3.643   0.508
   2.207  -3.407   0.508
   2.402  -3.146   0.508
   2.564  -2.864   0.508
   2.693  -2.565   0.508
   2.787  -2.253   0.508
   2.843  -1.933   0.508
  -2.563  -2.718   0.190
  -2.419  -3.010   0.190
  -2.243  -3.284   0.190
  -2.037  -3.536   0.190
  -1.804  -3.763   0.190
  -1.546  -3.962   0.190
  -1.267  -4.130   0.190
  -0.971  -4.266   0.190
  -0.661  -4.366   0.190
  -0.342  -4.431   0.190
  -0.017  -4.459   0.190
   0.308  -4.449   0.190
   0.630  -4.403   0.190
   0.945  -4.320   0.190
   1.249  -4.202   0.190
   1.537  -4.050   0.190
   1.806  -3.866   0.190
   2.052  -3.653   0.190
   2.272  -3.413   0.190
   2.463  -3.150   0.190
   2.623  -2.866   0.190
   2.750  -2.566   0.190
   2.842  -2.254   0.190
   2.897  -1.933   0.190
  -2.522  -2.853  -0.131
  -2.366  -3.135  -0.131
  -2.180  -3.397  -0.131
  -1.965  -3.637  -0.131
  -1.725  -3.852  -0.131
  -1.463  -4.038  -0.131
  -1.181  -4.194  -0.131
  -0.884  -4.317  -0.131
  -0.575  -4.406  -0.131
  -0.257  -4.460  -0.131
   0.064  -4.478  -0.131
   0.385  -4.460  -0.131
   0.703  -4.406  -0.131
   1.012  -4.317  -0.131
   1.309  -4.194  -0.131
   1.591  -4.038  -0.131
   1.853  -3.852  -0.131
   2.093  -3.637  -0.131
   2.308  -3.397  -0.131
   2.494  -3.135  -0.131
   2.650  -2.853  -0.131
   2.773  -2.556  -0.131
   2.862  -2.247  -0.131
   2.916  -1.929  -0.131
  -2.563  -2.718  -0.452
  -2.419  -3.010  -0.452
  -2.243  -3.284  -0.452
  -2.037  -3.536  -0.452
  -1.804  -3.763  -0.452
  -1.546  -3.962  -0.452
  -1.267  -4.130  -0.452
  -0.971  -4.266  -0.452
  -0.661  -4.366  -0.452
  -0.342  -4.431  -0.452
  -0.017  -4.459  -0.452
   0.308  -4.449  -0.452
   0.630  -4.403  -0.452
   0.945  -4.320  -0.452
   1.249  -4.202  -0.452
   1.537  -4.050  -0.452
   1.806  -3.866  -0.452
   2.052  -3.653  -0.452
   2.272  -3.413  -0.452
   2.463  -3.150  -0.452
   2.623  -2.866  -0.452
   2.750  -2.566  -0.452
   2.842  -2.254  -0.452
   2.897  -1.933  -0.452
  -2.436  -2.864  -0.770
  -2.274  -3.146  -0.770
  -2.079  -3.407  -0.770
  -1.856  -3.643  -0.770
  -1.607  -3.852  -0.770
  -1.335  -4.031  -0.770
  -1.044  -4.177  -0.770
  -0.738  -4.288  -0.770
  -0.422  -4.364  -0.770
  -0.099  -4.401  -0.770
   0.227  -4.401  -0.770
   0.550  -4.364  -0.770
   0.866  -4.289  -0.770
   1.172  -4.177  -0.770
   1.463  -4.031  -0.770
   1.735  -3.852  -0.770
   1.984  -3.643  -0.770
   2.207  -3.407  -0.770
   2.402  -3.146  -0.770
   2.564  -2.864  -0.770
   2.693  -2.565  -0.770
   2.787  -2.253  -0.770
  -2.335  -2.867  -1.079
  -2.165  -3.147  -1.079
  -1.964  -3.404  -1.079
  -1.732  -3.636  -1.079
  -1.475  -3.837  -1.079
  -1.195  -4.007  -1.079
  -0.897  -4.141  -1.079
  -0.584  -4.238  -1.079
  -0.263  -4.297  -1.079
   0.064  -4.317  -1.079
   0.391  -4.297  -1.079
   0.712  -4.238  -1.079
   1.025  -4.141  -1.079
   1.323  -4.007  -1.079
   1.603  -3.837  -1.079
   1.860  -3.636  -1.079
   2.092  -3.404  -1.079
   2.293  -3.147  -1.079
   2.463  -2.867  -1.079
   2.597  -2.569  -1.079
   2.694  -2.256  -1.079
  -2.202  -2.854  -1.376
  -2.028  -3.128  -1.376
  -1.821  -3.378  -1.376
  -1.584  -3.600  -1.376
  -1.322  -3.791  -1.376
  -1.037  -3.948  -1.376
  -0.735  -4.067  -1.376
  -0.421  -4.148  -1.376
  -0.098  -4.189  -1.376
   0.226  -4.189  -1.376
   0.549  -4.148  -1.376
   0.863  -4.067  -1.376
   1.165  -3.948  -1.376
   1.450  -3.791  -1.376
   1.712  -3.600  -1.376
   1.949  -3.378  -1.376
   2.156  -3.128  -1.376
   2.330  -2.854  -1.376
   2.468  -2.560  -1.376
   2.569  -2.251  -1.376
  -2.105  -2.704  -1.658
  -1.939  -2.983  -1.658
  -1.738  -3.238  -1.658
  -1.505  -3.464  -1.658
  -1.244  -3.656  -1.658
  -0.959  -3.812  -1.658
  -0.656  -3.929  -1.658
  -0.340  -4.004  -1.658
  -0.017  -4.037  -1.658
   0.307  -4.026  -1.658
   0.627  -3.972  -1.658
   0.937  -3.876  -1.658
   1.232  -3.739  -1.658
   1.505  -3.564  -1.658
   1.753  -3.355  -1.658
   1.971  -3.114  -1.658
   2.155  -2.846  -1.658
   2.301  -2.557  -1.658
   2.408  -2.250  -1.658
  -1.893  -2.706  -1.920
  -1.712  -2.979  -1.920
  -1.493  -3.223  -1.920
  -1.242  -3.433  -1.920
  -0.962  -3.604  -1.920
  -0.661  -3.732  -1.920
  -0.344  -3.815  -1.920
  -0.018  -3.850  -1.920
   0.309  -3.838  -1.920
   0.632  -3.779  -1.920
   0.942  -3.673  -1.920
   1.233  -3.523  -1.920
   1.499  -3.333  -1.920
   1.735  -3.105  -1.920
   1.935  -2.846  -1.920
   2.096  -2.560  -1.920
   2.213  -2.254  -1.920
  -1.651  -2.693  -2.160
  -1.455  -2.954  -2.160
  -1.219  -3.180  -2.160
  -0.951  -3.366  -2.160
  -0.656  -3.506  -2.160
  -0.342  -3.596  -2.160
  -0.018  -3.636  -2.160
   0.309  -3.623  -2.160
   0.629  -3.557  -2.160
   0.934  -3.441  -2.160
   1.217  -3.278  -2.160
   1.470  -3.072  -2.160
   1.686  -2.827  -2.160
   1.861  -2.551  -2.160
   1.989  -2.251  -2.160
  -1.457  -2.550  -2.375
  -1.258  -2.814  -2.375
  -1.014  -3.036  -2.375
  -0.734  -3.210  -2.375
  -0.426  -3.329  -2.375
  -0.101  -3.390  -2.375
   0.229  -3.390  -2.375
   0.554  -3.329  -2.375
   0.862  -3.210  -2.375
   1.142  -3.036  -2.375
   1.386  -2.814  -2.375
   1.585  -2.550  -2.375
   1.733  -2.254  -2.375
  -1.244  -2.395  -2.561
  -1.045  -2.658  -2.561
  -0.793  -2.872  -2.561
  -0.501  -3.026  -2.561
  -0.183  -3.115  -2.561
   0.147  -3.133  -2.561
   0.472  -3.079  -2.561
   0.779  -2.957  -2.561
   1.053  -2.772  -2.561
   1.280  -2.532  -2.561
   1.450  -2.249  -2.561
   1.555  -1.936  -2.561
  -1.014  -2.231  -2.717
  -0.817  -2.489  -2.717
  -0.559  -2.686  -2.717
  -0.258  -2.811  -2.717
   0.064  -2.853  -2.717
   0.386  -2.811  -2.717
   0.687  -2.686  -2.717
   0.945  -2.489  -2.717
   1.142  -2.231  -2.717
   1.267  -1.930  -2.717
  -0.827  -1.932  -2.840
  -0.662  -2.217  -2.840
  -0.410  -2.429  -2.840
  -0.101  -2.542  -2.840
   0.229  -2.542  -2.840
   0.538  -2.429  -2.840
   0.790  -2.217  -2.840
   0.955  -1.932  -2.840
   0.703  -1.608  -2.929
  -0.575  -1.608  -2.929
  -0.489  -1.927  -2.929
  -0.255  -2.161  -2.929
   0.064  -2.247  -2.929
   0.383  -2.161  -2.929
   0.617  -1.927  -2.929
   0.385  -1.608  -2.983
  -0.257  -1.608  -2.983
  -0.097  -1.886  -2.983
   0.225  -1.886  -2.983
   0.064  -1.608  -3.001
  -2.717  -0.123   1.894
  -2.675  -0.437   1.894
  -2.778   0.645   1.742
  -2.914   0.353   1.742
  -2.983   0.038   1.742
  -2.983  -0.284   1.742
  -2.914  -0.599   1.742
  -2.778  -0.891   1.742
  -2.584  -1.147   1.742
  -3.130   0.508   1.560
  -3.218   0.198   1.560
  -3.248  -0.123   1.560
  -3.218  -0.444   1.560
  -3.130  -0.754   1.560
  -2.986  -1.042   1.560
  -2.792  -1.299   1.560
  -2.554  -1.516   1.560
  -3.475   0.036   1.351
  -3.475  -0.282   1.351
  -3.424  -0.597   1.351
  -3.323  -0.899   1.351
  -3.175  -1.181   1.351
  -2.984  -1.436   1.351
  -2.754  -1.657   1.351
  -2.492  -1.838   1.351
  -3.685  -0.283   1.117
  -3.639  -0.599   1.117
  -3.547  -0.905   1.117
  -3.411  -1.194   1.117
  -3.235  -1.461   1.117
  -3.021  -1.699   1.117
  -2.776  -1.903   1.117
  -2.503  -2.070   1.117
  -3.825  -0.595   0.861
  -3.742  -0.901   0.861
  -3.618  -1.192   0.861
  -3.457  -1.465   0.861
  -3.260  -1.713   0.861
  -3.033  -1.933   0.861
  -2.778  -2.121   0.861
  -3.945  -0.750   0.586
  -3.848  -1.052   0.586
  -3.713  -1.338   0.586
  -3.543  -1.606   0.586
  -3.341  -1.850   0.586
  -3.110  -2.067   0.586
  -2.854  -2.253   0.586
  -3.973  -1.060   0.296
  -3.842  -1.351   0.296
  -3.677  -1.624   0.296
  -3.480  -1.876   0.296
  -3.255  -2.101   0.296
  -3.003  -2.298   0.296
  -2.730  -2.463   0.296
  -3.941  -1.348  -0.006
  -3.783  -1.623  -0.006
  -3.593  -1.878  -0.006
  -3.375  -2.109  -0.006
  -3.132  -2.313  -0.006
  -2.867  -2.487  -0.006
  -3.925  -1.491  -0.315
  -3.753  -1.758  -0.315
  -3.552  -2.004  -0.315
  -3.324  -2.226  -0.315
  -3.073  -2.420  -0.315
  -2.800  -2.584  -0.315
  -3.691  -1.869  -0.629
  -3.482  -2.103  -0.629
  -3.248  -2.312  -0.629
  -2.992  -2.494  -0.629
  -2.717  -2.646  -0.629
  -3.552  -2.004  -0.942
  -3.324  -2.226  -0.942
  -3.073  -2.420  -0.942
  -2.800  -2.584  -0.942
  -2.511  -2.716  -0.942
  -3.132  -2.313  -1.252
  -2.867  -2.487  -1.252
  -2.583  -2.630  -1.252
  -3.003  -2.298  -1.554
  -2.730  -2.463  -1.554
  -2.439  -2.594  -1.554
  -2.854  -2.253  -1.844
  -2.576  -2.406  -1.844
  -2.282  -2.522  -1.844
  -2.500  -2.274  -2.119
  -2.204  -2.387  -2.119
  -1.896  -2.461  -2.119
  -2.209  -2.195  -2.375
  -1.900  -2.276  -2.375
  -1.582  -2.311  -2.375
  -1.898  -2.063  -2.609
  -1.582  -2.101  -2.609
  -1.663  -1.861  -2.818
  -1.341  -1.861  -2.818
  -1.024  -1.802  -2.818
  -0.804  -1.439  -3.000
  -3.715   0.329   1.248
  -3.954   0.158   1.047
  -3.795  -0.161   1.047
  -4.280   0.331   0.815
  -4.169  -0.003   0.815
  -4.005  -0.316   0.815
  -4.518   0.329   0.556
  -4.416  -0.010   0.556
  -4.266  -0.330   0.556
  -4.070  -0.625   0.556
  -4.771   0.681   0.272
  -4.724   0.333   0.272
  -4.632  -0.005   0.272
  -4.495  -0.328   0.272
  -4.316  -0.630   0.272
  -4.099  -0.905   0.272
  -4.945   0.856  -0.032
  -4.923   0.506  -0.032
  -4.857   0.161  -0.032
  -4.749  -0.172  -0.032
  -4.600  -0.490  -0.032
  -4.412  -0.786  -0.032
  -4.188  -1.056  -0.032
  -5.078   0.856  -0.353
  -5.057   0.503  -0.353
  -5.154   1.207  -0.687
  -5.187   1.381  -1.030
  -5.078   1.880  -1.377
  -4.990   2.055  -1.724
  -1.976   3.873  -2.067
  -2.328   3.873  -2.067
  -4.677   2.517  -2.067
  -4.853   2.212  -2.067
  -2.505   3.761  -2.401
  -2.852   3.697  -2.401
  -3.190   3.592  -2.401
  -3.512   3.447  -2.401
  -3.814   3.264  -2.401
  -4.092   3.046  -2.401
  -4.342   2.796  -2.401
  -4.560   2.518  -2.401
  -4.743   2.216  -2.401
  -2.675   3.600  -2.722
  -3.015   3.512  -2.722
  -3.341   3.383  -2.722
  -3.649   3.214  -2.722
  -3.932   3.008  -2.722
  -4.188   2.768  -2.722
  -4.412   2.498  -2.722
  -4.600   2.202  -2.722
  -1.977  -1.931  -2.722
  -2.930   3.363  -3.026
  -3.257   3.237  -3.026
  -3.564   3.068  -3.026
  -3.847   2.860  -3.026
  -4.099   2.617  -3.026
  -4.316   2.342  -3.026
  -1.889  -1.756  -3.026
  -1.544  -1.697  -3.026
  -1.209  -1.593  -3.026
  -0.891  -1.446  -3.026
  -0.595  -1.257  -3.026
  -2.935   3.150  -3.310
  -3.260   3.011  -3.310
  -3.562   2.827  -3.310
  -3.834   2.601  -3.310
  -4.070   2.337  -3.310
  -1.539  -1.489  -3.310
  -1.204  -1.375  -3.310
  -0.889  -1.213  -3.310
  -0.602  -1.007  -3.310
  -0.347  -0.761  -3.310
  -2.929   2.906  -3.569
  -3.248   2.754  -3.569
  -3.538   2.554  -3.569
  -3.793   2.310  -3.569
  -1.542  -1.249  -3.569
  -1.212  -1.124  -3.569
  -0.907  -0.948  -3.569
  -0.634  -0.725  -3.569
  -3.014   2.586  -3.801
  -3.317   2.398  -3.801
  -3.580   2.158  -3.801
  -1.623  -1.003  -3.801
  -1.290  -0.874  -3.801
  -0.987  -0.686  -3.801
  -3.078   2.221  -4.002
  -3.349   1.990  -4.002
  -1.711  -0.733  -4.002
  -1.379  -0.601  -4.002
  -3.103   1.807  -4.170
  -1.804  -0.443  -4.170
  -1.479  -0.309  -4.170
  -2.936   1.514  -4.303
  -1.974  -0.152  -4.303
  -2.749   1.201  -4.399
  -2.152   0.166  -4.399
  -2.326   0.555  -4.458
  -2.708   1.889   1.834
  -2.853   1.637   1.834
  -2.708   1.385   1.834
  -2.851   2.138   1.785
  -3.063   1.926   1.785
  -3.141   1.637   1.785
  -3.063   1.348   1.785
  -2.851   1.136   1.785
  -2.711   2.483   1.704
  -2.991   2.381   1.704
  -3.220   2.189   1.704
  -3.369   1.931   1.704
  -3.421   1.637   1.704
  -3.369   1.343   1.704
  -3.220   1.085   1.704
  -2.991   0.893   1.704
  -2.854   2.727   1.593
  -3.126   2.614   1.593
  -3.360   2.435   1.593
  -3.539   2.201   1.593
  -3.652   1.929   1.593
  -3.690   1.637   1.593
  -3.652   1.345   1.593
  -3.539   1.073   1.593
  -3.360   0.839   1.593
  -3.126   0.660   1.593
  -2.786   3.002   1.451
  -3.074   2.922   1.451
  -3.338   2.782   1.451
  -3.566   2.588   1.451
  -3.747   2.350   1.451
  -3.873   2.079   1.451
  -3.937   1.787   1.451
  -3.937   1.487   1.451
  -3.873   1.195   1.451
  -3.747   0.924   1.451
  -3.566   0.686   1.451
  -2.712   3.251   1.283
  -3.006   3.196   1.283
  -3.285   3.088   1.283
  -3.539   2.931   1.283
  -3.760   2.729   1.283
  -3.940   2.490   1.283
  -4.074   2.223   1.283
  -4.155   1.935   1.283
  -4.183   1.637   1.283
  -4.155   1.339   1.283
  -4.074   1.051   1.283
  -3.940   0.784   1.283
  -3.760   0.545   1.283
  -2.636   3.474   1.088
  -2.930   3.438   1.088
  -3.214   3.356   1.088
  -3.481   3.229   1.088
  -3.725   3.061   1.088
  -3.938   2.856   1.088
  -4.116   2.620   1.088
  -4.253   2.358   1.088
  -4.347   2.077   1.088
  -4.395   1.785   1.088
  -4.395   1.489   1.088
  -4.347   1.197   1.088
  -4.253   0.916   1.088
  -4.116   0.654   1.088
  -2.340   3.658   0.871
  -2.636   3.668   0.871
  -2.931   3.636   0.871
  -3.218   3.561   0.871
  -3.491   3.445   0.871
  -3.745   3.290   0.871
  -3.973   3.100   0.871
  -4.171   2.879   0.871
  -4.335   2.632   0.871
  -4.461   2.363   0.871
  -4.546   2.079   0.871
  -4.589   1.785   0.871
  -4.589   1.489   0.871
  -4.546   1.195   0.871
  -4.461   0.911   0.871
  -4.335   0.642   0.871
  -2.342   3.827   0.633
  -2.636   3.837   0.633
  -2.928   3.808   0.633
  -3.214   3.740   0.633
  -3.489   3.634   0.633
  -3.747   3.493   0.633
  -3.983   3.318   0.633
  -4.195   3.114   0.633
  -4.377   2.883   0.633
  -4.527   2.630   0.633
  -4.642   2.359   0.633
  -4.719   2.076   0.633
  -4.759   1.784   0.633
  -4.759   1.490   0.633
  -4.719   1.199   0.633
  -4.642   0.915   0.633
  -4.527   0.644   0.633
  -2.123   3.938   0.378
  -2.415   3.975   0.378
  -2.709   3.975   0.378
  -3.001   3.938   0.378
  -3.286   3.865   0.378
  -3.559   3.757   0.378
  -3.817   3.615   0.378
  -4.055   3.442   0.378
  -4.270   3.241   0.378
  -4.457   3.014   0.378
  -4.615   2.766   0.378
  -4.740   2.499   0.378
  -4.831   2.220   0.378
  -4.886   1.931   0.378
  -4.905   1.637   0.378
  -4.886   1.343   0.378
  -4.831   1.054   0.378
  -4.740   0.775   0.378
  -1.975   4.020   0.109
  -2.266   4.073   0.109
  -2.562   4.091   0.109
  -2.858   4.073   0.109
  -3.149   4.020   0.109
  -3.432   3.932   0.109
  -3.702   3.810   0.109
  -3.956   3.657   0.109
  -4.189   3.474   0.109
  -4.399   3.264   0.109
  -4.582   3.031   0.109
  -4.735   2.777   0.109
  -4.857   2.507   0.109
  -4.945   2.224   0.109
  -4.998   1.933   0.109
  -5.016   1.637   0.109
  -4.998   1.341   0.109
  -4.945   1.050   0.109
  -1.835   4.065  -0.171
  -2.122   4.133  -0.171
  -2.415   4.168  -0.171
  -2.709   4.168  -0.171
  -3.002   4.133  -0.171
  -3.289   4.065  -0.171
  -3.566   3.965  -0.171
  -3.829   3.832  -0.171
  -4.076   3.670  -0.171
  -4.301   3.481  -0.171
  -4.504   3.266  -0.171
  -4.680   3.030  -0.171
  -4.827   2.775  -0.171
  -4.944   2.504  -0.171
  -5.028   2.222  -0.171
  -5.080   1.931  -0.171
  -5.097   1.637  -0.171
  -5.080   1.343  -0.171
  -5.028   1.052  -0.171
  -1.764   4.094  -0.459
  -2.049   4.169  -0.459
  -2.341   4.211  -0.459
  -2.636   4.220  -0.459
  -2.930   4.194  -0.459