 $system timlim=999888777
         mwords=100 $end
 $contrl exetyp=run
         runtyp=energy scftyp=rhf
         icharg=-1 mult=1 units=angs coord=unique
         maxit=50 ispher=1 qmttol=1d-6 icut=12 itol=22 $end
 $scf    dirscf=.t. diis=.t. soscf=.f.
         fdiff=.f. conv=1d-6
         npreo(1)=0,-1,1,9999 $end
 $elpot  iepot=1 where=points $end
 $basis  gbasis=n311 ngauss=6
         ndfunc=1 npfunc=1 diffsp=.t. diffs=.t. $end
 $DATA
TS1a_hfd_irc200_all_revmov.pdb
C1
P     15.0     0.00300   0.04200  -0.01800 
O      8.0     0.08700  -0.17900   1.59800 
O      8.0     1.20600   0.27300  -0.87000 
F      9.0     0.03600  -1.62000  -0.08200 
O      8.0    -1.50200  -0.12300  -0.62900 
C      6.0    -2.15200   0.85600  -1.37700 
H      1.0    -2.55700   1.64000  -0.75100 
H      1.0    -1.49300   1.30500  -2.11300 
H      1.0    -2.96200   0.35400  -1.89900 
C      6.0     0.60500   0.75900   2.48700 
H      1.0     0.82400   0.22200   3.40600 
H      1.0     1.52500   1.20000   2.11800 
H      1.0    -0.10000   1.55400   2.69300 
O      8.0    -0.30700   1.73800   0.24600 
H      1.0     0.37500   2.18700  -0.23000 
 $END
 $POINTS
ANGS 3049
   2.608  -1.390   1.414
   2.761  -1.406   1.072
   2.915  -1.063   1.072
   3.027  -0.703   1.072
   2.878  -1.402   0.716
  -0.368  -1.341  -2.991
   0.003  -1.390  -2.991
  -0.186  -1.031  -3.133
   0.192  -1.031  -3.133
   0.003  -0.692  -3.235
  -1.586  -1.237   3.578
  -1.395  -1.492   3.578
  -1.165  -1.713   3.578
  -0.903  -1.894   3.578
  -0.615  -2.030   3.578
  -0.309  -2.119   3.578
  -2.050  -0.655   3.344
  -1.958  -0.961   3.344
  -1.822  -1.250   3.344
  -1.646  -1.517   3.344
  -1.432  -1.755   3.344
  -1.187  -1.959   3.344
  -0.914  -2.126   3.344
  -0.620  -2.251   3.344
  -0.311  -2.332   3.344
   0.007  -2.367   3.344
   0.326  -2.355   3.344
  -2.279  -0.337   3.088
  -2.236  -0.651   3.088
  -2.153  -0.957   3.088
  -2.029  -1.248   3.088
  -1.868  -1.521   3.088
  -1.671  -1.769   3.088
  -1.444  -1.989   3.088
  -1.189  -2.177   3.088
  -0.911  -2.330   3.088
  -0.615  -2.443   3.088
  -0.307  -2.517   3.088
   0.008  -2.549   3.088
   0.324  -2.538   3.088
   0.637  -2.485   3.088
   0.939  -2.391   3.088
  -2.416   0.137   2.813
  -2.436  -0.179   2.813
  -2.416  -0.495   2.813
  -2.356  -0.806   2.813
  -2.259  -1.108   2.813
  -2.124  -1.394   2.813
  -1.954  -1.662   2.813
  -1.752  -1.906   2.813
  -1.521  -2.123   2.813
  -1.265  -2.309   2.813
  -0.987  -2.462   2.813
  -0.693  -2.578   2.813
  -0.386  -2.657   2.813
  -0.071  -2.697   2.813
   0.245  -2.697   2.813
   0.560  -2.657   2.813
   0.867  -2.578   2.813
   1.161  -2.462   2.813
   1.439  -2.309   2.813
  -2.537   0.140   2.523
  -2.556  -0.179   2.523
  -2.537  -0.498   2.523
  -2.479  -0.811   2.523
  -2.384  -1.116   2.523
  -2.253  -1.407   2.523
  -2.088  -1.680   2.523
  -1.891  -1.932   2.523
  -1.666  -2.157   2.523
  -1.414  -2.354   2.523
  -1.141  -2.519   2.523
  -0.850  -2.650   2.523
  -0.545  -2.745   2.523
  -0.232  -2.803   2.523
   0.406  -2.803   2.523
   0.719  -2.745   2.523
   1.024  -2.650   2.523
   1.315  -2.519   2.523
   1.588  -2.354   2.523
   1.840  -2.157   2.523
  -2.569   0.451   2.221
  -2.624   0.138   2.221
  -2.643  -0.179   2.221
  -2.624  -0.496   2.221
  -2.569  -0.809   2.221
  -2.478  -1.113   2.221
  -2.352  -1.404   2.221
  -2.194  -1.679   2.221
  -2.004  -1.934   2.221
  -1.786  -2.165   2.221
  -1.543  -2.369   2.221
   1.717  -2.369   2.221
   1.960  -2.165   2.221
   2.178  -1.934   2.221
  -2.691  -0.020   1.912
  -2.691  -0.338   1.912
  -2.655  -0.653   1.912
  -2.583  -0.963   1.912
  -2.476  -1.262   1.912
  -2.336  -1.547   1.912
  -2.164  -1.814   1.912
   2.026  -2.174   1.912
   2.241  -1.940   1.912
   2.428  -1.683   1.912
   2.458  -1.669   1.598
   3.032  -0.935   0.876
   3.188  -0.656   0.876
   3.302  -0.358   0.876
   3.577   0.273   0.620
   3.067  -1.196   0.620
   3.246  -0.935   0.620
   3.389  -0.653   0.620
   3.493  -0.353   0.620
   3.556  -0.043   0.620
   3.729   0.273   0.345
   3.709   0.589   0.345
   3.649   0.900   0.345
   3.552   1.202   0.345
   3.417   1.488   0.345
   3.045  -1.454   0.345
   3.247  -1.210   0.345
   3.417  -0.942   0.345
   3.552  -0.656   0.345
   3.649  -0.354   0.345
   3.709  -0.043   0.345
   3.849   0.273   0.055
   3.830   0.592   0.055
   3.772   0.905   0.055
   3.677   1.210   0.055
   3.546   1.501   0.055
   3.381   1.774   0.055
   3.184   2.026   0.055
   2.959  -1.705   0.055
   3.184  -1.480   0.055
   3.381  -1.228   0.055
   3.546  -0.955   0.055
   3.677  -0.664   0.055
   3.772  -0.359   0.055
   3.830  -0.046   0.055
   3.936   0.273  -0.247
   3.917   0.590  -0.247
   3.862   0.903  -0.247
   3.771   1.207  -0.247
   3.645   1.498  -0.247
   3.487   1.773  -0.247
   3.297   2.028  -0.247
   3.079   2.259  -0.247
   3.079  -1.713  -0.247
   3.297  -1.482  -0.247
   3.487  -1.227  -0.247
   3.645  -0.952  -0.247
   3.771  -0.661  -0.247
   3.862  -0.357  -0.247
   3.917  -0.044  -0.247
   3.988   0.273  -0.556
   3.970   0.590  -0.556
   3.916   0.903  -0.556
   3.827   1.208  -0.556
   3.703   1.501  -0.556
   3.547   1.777  -0.556
   3.360   2.034  -0.556
   3.145   2.268  -0.556
   2.905  -1.930  -0.556
   3.145  -1.722  -0.556
   3.360  -1.488  -0.556
   3.547  -1.231  -0.556
   3.703  -0.955  -0.556
   3.827  -0.662  -0.556
   3.916  -0.357  -0.556
   3.970  -0.044  -0.556
   4.006   0.273  -0.870
   3.988   0.587  -0.870
   3.936   0.896  -0.870
   3.849   1.198  -0.870
   3.729   1.488  -0.870
   3.577   1.763  -0.870
   3.395   2.019  -0.870
   3.186   2.253  -0.870
   2.952   2.462  -0.870
   2.952  -1.916  -0.870
   3.186  -1.707  -0.870
   3.395  -1.473  -0.870
   3.577  -1.217  -0.870
   3.729  -0.942  -0.870
   3.849  -0.652  -0.870
   3.936  -0.350  -0.870
   3.988  -0.041  -0.870
   3.988   0.273  -1.183
   3.970   0.590  -1.183
   3.916   0.903  -1.183
   3.827   1.208  -1.183
   3.703   1.501  -1.183
   3.547   1.777  -1.183
   3.360   2.034  -1.183
   3.145   2.268  -1.183
   2.905   2.476  -1.183
   2.643  -2.110  -1.183
   2.905  -1.930  -1.183
   3.145  -1.722  -1.183
   3.360  -1.488  -1.183
   3.547  -1.231  -1.183
   3.703  -0.955  -1.183
   3.827  -0.662  -1.183
   3.916  -0.357  -1.183
   3.970  -0.044  -1.183
   3.936   0.273  -1.493
   3.917   0.590  -1.493
   3.862   0.903  -1.493
   3.771   1.207  -1.493
   3.645   1.498  -1.493
   3.487   1.773  -1.493
   3.297   2.028  -1.493
   3.079   2.259  -1.493
   2.836   2.463  -1.493
   2.571  -2.091  -1.493
   2.836  -1.917  -1.493
   3.079  -1.713  -1.493
   3.297  -1.482  -1.493
   3.487  -1.227  -1.493
   3.645  -0.952  -1.493
   3.771  -0.661  -1.493
   3.862  -0.357  -1.493
   3.917  -0.044  -1.493
   3.849   0.273  -1.795
   3.830   0.592  -1.795
   3.772   0.905  -1.795
   3.677   1.210  -1.795
   3.546   1.501  -1.795
   3.381   1.774  -1.795
   3.184   2.026  -1.795
   2.959   2.251  -1.795
   2.707   2.448  -1.795
   2.434   2.613  -1.795
   2.434  -2.067  -1.795
   2.707  -1.902  -1.795
   2.959  -1.705  -1.795
   3.184  -1.480  -1.795
   3.381  -1.228  -1.795
   3.546  -0.955  -1.795
   3.677  -0.664  -1.795
   3.772  -0.359  -1.795
   3.830  -0.046  -1.795
   3.729   0.273  -2.085
   3.709   0.589  -2.085
   3.649   0.900  -2.085
   3.552   1.202  -2.085
   3.417   1.488  -2.085
   3.247   1.756  -2.085
   3.045   2.000  -2.085
   2.814   2.217  -2.085
   2.558   2.403  -2.085
   2.280   2.556  -2.085
   2.280  -2.010  -2.085
   2.558  -1.857  -2.085
   2.814  -1.671  -2.085
   3.045  -1.454  -2.085
   3.247  -1.210  -2.085
   3.417  -0.942  -2.085
   3.552  -0.656  -2.085
   3.649  -0.354  -2.085
   3.709  -0.043  -2.085
   3.577   0.273  -2.360
   3.556   0.589  -2.360
   3.493   0.899  -2.360
   3.389   1.199  -2.360
   3.246   1.481  -2.360
   3.067   1.742  -2.360
   2.854   1.977  -2.360
   2.612   2.182  -2.360
   2.345   2.352  -2.360
   2.058   2.485  -2.360
   1.756  -2.033  -2.360
   2.058  -1.939  -2.360
   2.345  -1.806  -2.360
   2.612  -1.636  -2.360
   2.854  -1.431  -2.360
   3.067  -1.196  -2.360
   3.246  -0.935  -2.360
   3.389  -0.653  -2.360
   3.493  -0.353  -2.360
   3.556  -0.043  -2.360
   3.395   0.273  -2.616
   3.372   0.592  -2.616
   3.302   0.904  -2.616
   3.188   1.202  -2.616
   3.032   1.481  -2.616
   2.836   1.734  -2.616
   2.606   1.956  -2.616
   2.346   2.142  -2.616
   2.062   2.288  -2.616
   1.760   2.391  -2.616
   1.445   2.449  -2.616
   1.445  -1.903  -2.616
   1.760  -1.845  -2.616
   2.062  -1.742  -2.616
   2.346  -1.596  -2.616
   2.606  -1.410  -2.616
   2.836  -1.188  -2.616
   3.032  -0.935  -2.616
   3.188  -0.656  -2.616
   3.302  -0.358  -2.616
   3.372  -0.046  -2.616
   3.186   0.273  -2.850
   3.160   0.591  -2.850
   3.084   0.900  -2.850
   2.959   1.193  -2.850
   2.789   1.462  -2.850
   2.578   1.701  -2.850
   2.331   1.902  -2.850
   2.055   2.062  -2.850
   1.757   2.175  -2.850
   1.445   2.238  -2.850
   1.126   2.251  -2.850
   0.810  -1.667  -2.850
   1.126  -1.705  -2.850
   1.445  -1.692  -2.850
   1.757  -1.629  -2.850
   2.055  -1.516  -2.850
   2.331  -1.356  -2.850
   2.578  -1.155  -2.850
   2.789  -0.916  -2.850
   2.959  -0.647  -2.850
   3.084  -0.354  -2.850
   3.160  -0.045  -2.850
   2.952   0.273  -3.059
   2.922   0.594  -3.059
   2.834   0.904  -3.059
   2.690   1.192  -3.059
   2.496   1.449  -3.059
   2.258   1.666  -3.059
   1.984   1.836  -3.059
   1.684   1.952  -3.059
   1.367   2.011  -3.059
   1.045   2.011  -3.059
   0.428  -1.290  -3.059
   0.728  -1.406  -3.059
   1.045  -1.465  -3.059
   1.367  -1.465  -3.059
   1.684  -1.406  -3.059
   1.984  -1.290  -3.059
   2.258  -1.120  -3.059
   2.496  -0.903  -3.059
   2.690  -0.646  -3.059
   2.834  -0.358  -3.059
   2.922  -0.048  -3.059
   2.696   0.273  -3.241
   2.661   0.593  -3.241
   2.558   0.899  -3.241
   2.392   1.175  -3.241
   2.170   1.408  -3.241
   1.904   1.589  -3.241
   1.605   1.708  -3.241
   1.287   1.761  -3.241
   0.965   1.743  -3.241
   0.124  -0.751  -3.241
   0.370  -0.960  -3.241
   0.655  -1.111  -3.241
   0.965  -1.197  -3.241
   1.287  -1.215  -3.241
   1.605  -1.162  -3.241
   1.904  -1.043  -3.241
   2.170  -0.862  -3.241
   2.392  -0.629  -3.241
   2.558  -0.353  -3.241
   2.661  -0.047  -3.241
   2.421   0.273  -3.393
   2.379   0.587  -3.393
   2.258   0.880  -3.393
   2.065   1.132  -3.393
   1.813   1.325  -3.393
   1.520   1.446  -3.393
   1.206   1.488  -3.393
   0.892   1.446  -3.393
   0.154  -0.334  -3.393
   0.347  -0.586  -3.393
   0.599  -0.779  -3.393
   0.892  -0.900  -3.393
   1.206  -0.942  -3.393
   1.520  -0.900  -3.393
   1.813  -0.779  -3.393
   2.065  -0.586  -3.393
   2.258  -0.334  -3.393
   2.379  -0.041  -3.393
   2.131   0.273  -3.513
   2.075   0.589  -3.513
   1.914   0.867  -3.513
   1.668   1.074  -3.513
   1.367   1.184  -3.513
   1.045   1.184  -3.513
   0.744   1.074  -3.513
   0.337  -0.043  -3.513
   0.498  -0.321  -3.513
   0.744  -0.528  -3.513
   1.045  -0.638  -3.513
   1.367  -0.638  -3.513
   1.668  -0.528  -3.513
   1.914  -0.321  -3.513
   2.075  -0.043  -3.513
   1.829   0.273  -3.600
   1.746   0.585  -3.600
   1.518   0.813  -3.600
   1.206   0.896  -3.600
   0.894   0.813  -3.600
   0.666   0.585  -3.600
   0.583   0.273  -3.600
   0.666  -0.039  -3.600
   0.894  -0.267  -3.600
   1.206  -0.350  -3.600
   1.518  -0.267  -3.600
   1.746  -0.039  -3.600
   1.520   0.273  -3.652
   1.363   0.545  -3.652
   1.049   0.545  -3.652
   0.892   0.273  -3.652
   1.049   0.001  -3.652
   1.363   0.001  -3.652
   1.206   0.273  -3.670
  -0.286  -2.823   2.504
   0.036  -2.865   2.504
   0.358  -2.823   2.504
  -1.073  -2.670   2.348
  -0.821  -2.884   2.348
  -0.529  -3.038   2.348
  -0.211  -3.127   2.348
   0.119  -3.145   2.348
   0.444  -3.091   2.348
   0.751  -2.969   2.348
   1.025  -2.784   2.348
  -1.485  -2.562   2.162
  -1.286  -2.826   2.162
  -1.042  -3.048   2.162
  -0.762  -3.222   2.162
  -0.454  -3.341   2.162
  -0.129  -3.402   2.162
   0.201  -3.402   2.162
   0.526  -3.341   2.162
   0.834  -3.222   2.162
   1.114  -3.048   2.162
   1.358  -2.826   2.162
   1.557  -2.562   2.162
  -1.934  -2.106   1.947
  -1.831  -2.415   1.947
  -1.679  -2.705   1.947
  -1.483  -2.966   1.947
  -1.247  -3.192   1.947
  -0.979  -3.378   1.947
  -0.684  -3.518   1.947
  -0.370  -3.608   1.947
  -0.046  -3.648   1.947
   0.281  -3.635   1.947
   0.601  -3.569   1.947
   0.906  -3.453   1.947
   1.189  -3.290   1.947
   1.442  -3.084   1.947
   1.658  -2.839   1.947
   1.833  -2.563   1.947
   1.961  -2.263   1.947
  -2.154  -2.108   1.707
  -2.060  -2.422   1.707
  -1.921  -2.718   1.707
  -1.740  -2.991   1.707
  -1.521  -3.235   1.707
  -1.270  -3.445   1.707
  -0.990  -3.616   1.707
  -0.689  -3.744   1.707
  -0.372  -3.827   1.707
  -0.046  -3.862   1.707
   0.281  -3.850   1.707
   0.604  -3.791   1.707
   0.914  -3.685   1.707
   1.205  -3.535   1.707
   1.471  -3.345   1.707
   1.707  -3.117   1.707
   1.907  -2.858   1.707
   2.068  -2.572   1.707
   2.185  -2.266   1.707
   2.256  -1.947   1.707
  -2.389  -1.782   1.445
  -2.345  -2.104   1.445
  -2.260  -2.417   1.445
  -2.133  -2.716   1.445
  -1.967  -2.995   1.445
  -1.766  -3.250   1.445
  -1.533  -3.476   1.445
  -1.272  -3.668   1.445
  -0.987  -3.824   1.445
  -0.684  -3.941   1.445
  -0.368  -4.016   1.445
  -0.045  -4.049   1.445
   0.279  -4.038   1.445
   0.599  -3.984   1.445
   0.909  -3.888   1.445
   1.204  -3.751   1.445
   1.477  -3.576   1.445
   1.725  -3.367   1.445
   1.943  -3.126   1.445
   2.127  -2.858   1.445
   2.273  -2.569   1.445
   2.380  -2.262   1.445
   2.444  -1.944   1.445
   2.622  -1.620   1.163
  -2.469  -2.263   1.163
  -2.368  -2.572   1.163
  -2.230  -2.866   1.163
  -2.056  -3.140   1.163
  -1.849  -3.390   1.163
  -1.612  -3.612   1.163
  -1.350  -3.803   1.163
  -1.065  -3.960   1.163
  -0.763  -4.079   1.163
  -0.449  -4.160   1.163
  -0.126  -4.201   1.163
   0.198  -4.201   1.163
   0.521  -4.160   1.163
   0.835  -4.079   1.163
   1.137  -3.960   1.163
   1.422  -3.803   1.163
   1.684  -3.612   1.163
   1.921  -3.390   1.163
   2.128  -3.140   1.163
   2.302  -2.866   1.163
   2.440  -2.572   1.163
   2.541  -2.263   1.163
   2.601  -1.944   1.163
   2.745  -1.620   0.866
  -2.594  -2.268   0.866
  -2.497  -2.581   0.866
  -2.363  -2.879   0.866
  -2.193  -3.159   0.866
  -1.992  -3.416   0.866
  -1.760  -3.648   0.866
  -1.503  -3.849   0.866
  -1.223  -4.019   0.866
  -0.925  -4.153   0.866
  -0.612  -4.250   0.866
  -0.291  -4.309   0.866
   0.036  -4.329   0.866
   0.363  -4.309   0.866
   0.684  -4.250   0.866
   0.997  -4.153   0.866
   1.295  -4.019   0.866
   1.575  -3.849   0.866
   1.832  -3.648   0.866
   2.064  -3.416   0.866
   2.265  -3.159   0.866
   2.435  -2.879   0.866
   2.569  -2.581   0.866
   2.666  -2.268   0.866
   2.725  -1.947   0.866
   2.834  -1.620   0.557
  -2.593  -2.577   0.557
  -2.464  -2.876   0.557
  -2.302  -3.158   0.557
  -2.107  -3.419   0.557
  -1.884  -3.655   0.557
  -1.635  -3.864   0.557
  -1.363  -4.043   0.557
  -1.072  -4.189   0.557
  -0.766  -4.300   0.557
  -0.450  -4.376   0.557
  -0.127  -4.413   0.557
   0.199  -4.413   0.557
   0.522  -4.376   0.557
   0.838  -4.300   0.557
   1.144  -4.189   0.557
   1.435  -4.043   0.557
   1.707  -3.864   0.557
   1.956  -3.655   0.557
   2.179  -3.419   0.557
   2.374  -3.158   0.557
   2.536  -2.876   0.557
   2.665  -2.577   0.557
   2.759  -2.265   0.557
   2.815  -1.945   0.557
  -2.591  -2.730   0.239
  -2.447  -3.022   0.239
  -2.271  -3.296   0.239
  -2.065  -3.548   0.239
  -1.832  -3.775   0.239
  -1.574  -3.974   0.239
  -1.295  -4.142   0.239
  -0.999  -4.278   0.239
  -0.689  -4.378   0.239
  -0.370  -4.443   0.239
  -0.045  -4.471   0.239
   0.280  -4.461   0.239
   0.602  -4.415   0.239
   0.917  -4.332   0.239
   1.221  -4.214   0.239
   1.509  -4.062   0.239
   1.778  -3.878   0.239
   2.024  -3.665   0.239
   2.244  -3.425   0.239
   2.435  -3.162   0.239
   2.595  -2.878   0.239
   2.722  -2.578   0.239
   2.814  -2.266   0.239
   2.869  -1.945   0.239
  -2.550  -2.865  -0.082
  -2.394  -3.147  -0.082
  -2.208  -3.409  -0.082
  -1.993  -3.649  -0.082
  -1.753  -3.864  -0.082
  -1.491  -4.050  -0.082
  -1.209  -4.206  -0.082
  -0.912  -4.329  -0.082
  -0.603  -4.418  -0.082
  -0.285  -4.472  -0.082
   0.036  -4.490  -0.082
   0.357  -4.472  -0.082
   0.675  -4.418  -0.082
   0.984  -4.329  -0.082
   1.281  -4.206  -0.082
   1.563  -4.050  -0.082
   1.825  -3.864  -0.082
   2.065  -3.649  -0.082
   2.280  -3.409  -0.082
   2.466  -3.147  -0.082
   2.622  -2.865  -0.082
   2.745  -2.568  -0.082
   2.834  -2.259  -0.082
   2.888  -1.941  -0.082
  -2.591  -2.730  -0.403
  -2.447  -3.022  -0.403
  -2.271  -3.296  -0.403
  -2.065  -3.548  -0.403
  -1.832  -3.775  -0.403
  -1.574  -3.974  -0.403
  -1.295  -4.142  -0.403
  -0.999  -4.278  -0.403
  -0.689  -4.378  -0.403
  -0.370  -4.443  -0.403
  -0.045  -4.471  -0.403
   0.280  -4.461  -0.403
   0.602  -4.415  -0.403
   0.917  -4.332  -0.403
   1.221  -4.214  -0.403
   1.509  -4.062  -0.403
   1.778  -3.878  -0.403
   2.024  -3.665  -0.403
   2.244  -3.425  -0.403
   2.435  -3.162  -0.403
   2.595  -2.878  -0.403
   2.722  -2.578  -0.403
   2.814  -2.266  -0.403
   2.869  -1.945  -0.403
  -2.464  -2.876  -0.721
  -2.302  -3.158  -0.721
  -2.107  -3.419  -0.721
  -1.884  -3.655  -0.721
  -1.635  -3.864  -0.721
  -1.363  -4.043  -0.721
  -1.072  -4.189  -0.721
  -0.766  -4.300  -0.721
  -0.450  -4.376  -0.721
  -0.127  -4.413  -0.721
   0.199  -4.413  -0.721
   0.522  -4.376  -0.721
   0.838  -4.300  -0.721
   1.144  -4.189  -0.721
   1.435  -4.043  -0.721
   1.707  -3.864  -0.721
   1.956  -3.655  -0.721
   2.179  -3.419  -0.721
   2.374  -3.158  -0.721
   2.536  -2.876  -0.721
   2.665  -2.577  -0.721
   2.759  -2.265  -0.721
  -2.363  -2.879  -1.030
  -2.193  -3.159  -1.030
  -1.992  -3.416  -1.030
  -1.760  -3.648  -1.030
  -1.503  -3.849  -1.030
  -1.223  -4.019  -1.030
  -0.925  -4.153  -1.030
  -0.612  -4.250  -1.030
  -0.291  -4.309  -1.030
   0.036  -4.329  -1.030
   0.363  -4.309  -1.030
   0.684  -4.250  -1.030
   0.997  -4.153  -1.030
   1.295  -4.019  -1.030
   1.575  -3.849  -1.030
   1.832  -3.648  -1.030
   2.064  -3.416  -1.030
   2.265  -3.159  -1.030
   2.435  -2.879  -1.030
   2.569  -2.581  -1.030
   2.666  -2.268  -1.030
  -2.230  -2.866  -1.327
  -2.056  -3.140  -1.327
  -1.849  -3.390  -1.327
  -1.612  -3.612  -1.327
  -1.350  -3.803  -1.327
  -1.065  -3.960  -1.327
  -0.763  -4.079  -1.327
  -0.449  -4.160  -1.327
  -0.126  -4.201  -1.327
   0.198  -4.201  -1.327
   0.521  -4.160  -1.327
   0.835  -4.079  -1.327
   1.137  -3.960  -1.327
   1.422  -3.803  -1.327
   1.684  -3.612  -1.327
   1.921  -3.390  -1.327
   2.128  -3.140  -1.327
   2.302  -2.866  -1.327
   2.440  -2.572  -1.327
   2.541  -2.263  -1.327
  -2.133  -2.716  -1.609
  -1.967  -2.995  -1.609
  -1.766  -3.250  -1.609
  -1.533  -3.476  -1.609
  -1.272  -3.668  -1.609
  -0.987  -3.824  -1.609
  -0.684  -3.941  -1.609
  -0.368  -4.016  -1.609
  -0.045  -4.049  -1.609
   0.279  -4.038  -1.609
   0.599  -3.984  -1.609
   0.909  -3.888  -1.609
   1.204  -3.751  -1.609
   1.477  -3.576  -1.609
   1.725  -3.367  -1.609
   1.943  -3.126  -1.609
   2.127  -2.858  -1.609
   2.273  -2.569  -1.609
   2.380  -2.262  -1.609
  -1.921  -2.718  -1.871
  -1.740  -2.991  -1.871
  -1.521  -3.235  -1.871
  -1.270  -3.445  -1.871
  -0.990  -3.616  -1.871
  -0.689  -3.744  -1.871
  -0.372  -3.827  -1.871
  -0.046  -3.862  -1.871
   0.281  -3.850  -1.871
   0.604  -3.791  -1.871
   0.914  -3.685  -1.871
   1.205  -3.535  -1.871
   1.471  -3.345  -1.871
   1.707  -3.117  -1.871
   1.907  -2.858  -1.871
   2.068  -2.572  -1.871
   2.185  -2.266  -1.871
  -1.679  -2.705  -2.111
  -1.483  -2.966  -2.111
  -1.247  -3.192  -2.111
  -0.979  -3.378  -2.111
  -0.684  -3.518  -2.111
  -0.370  -3.608  -2.111
  -0.046  -3.648  -2.111
   0.281  -3.635  -2.111
   0.601  -3.569  -2.111
   0.906  -3.453  -2.111
   1.189  -3.290  -2.111
   1.442  -3.084  -2.111
   1.658  -2.839  -2.111
   1.833  -2.563  -2.111
   1.961  -2.263  -2.111
  -1.485  -2.562  -2.326
  -1.286  -2.826  -2.326
  -1.042  -3.048  -2.326
  -0.762  -3.222  -2.326
  -0.454  -3.341  -2.326
  -0.129  -3.402  -2.326
   0.201  -3.402  -2.326
   0.526  -3.341  -2.326
   0.834  -3.222  -2.326
   1.114  -3.048  -2.326
   1.358  -2.826  -2.326
   1.557  -2.562  -2.326
   1.705  -2.266  -2.326
  -1.272  -2.407  -2.512
  -1.073  -2.670  -2.512
  -0.821  -2.884  -2.512
  -0.529  -3.038  -2.512
  -0.211  -3.127  -2.512
   0.119  -3.145  -2.512
   0.444  -3.091  -2.512
   0.751  -2.969  -2.512
   1.025  -2.784  -2.512
   1.252  -2.544  -2.512
   1.422  -2.261  -2.512
  -1.042  -2.243  -2.668
  -0.845  -2.501  -2.668
  -0.587  -2.698  -2.668
  -0.286  -2.823  -2.668
   0.036  -2.865  -2.668
   0.358  -2.823  -2.668
   0.659  -2.698  -2.668
   0.917  -2.501  -2.668
   1.114  -2.243  -2.668
   1.239  -1.942  -2.668
  -0.855  -1.944  -2.791
  -0.690  -2.229  -2.791
  -0.438  -2.441  -2.791
  -0.129  -2.554  -2.791
   0.201  -2.554  -2.791
   0.510  -2.441  -2.791
   0.762  -2.229  -2.791
   0.927  -1.944  -2.791
   0.675  -1.620  -2.880
  -0.603  -1.620  -2.880
  -0.517  -1.939  -2.880
  -0.283  -2.173  -2.880
   0.036  -2.259  -2.880
   0.355  -2.173  -2.880
   0.589  -1.939  -2.880
   0.357  -1.620  -2.934
  -0.285  -1.620  -2.934
  -0.125  -1.898  -2.934
   0.197  -1.898  -2.934
   0.036  -1.620  -2.952
  -2.717  -0.123   1.894
  -2.778   0.645   1.742
  -2.914   0.353   1.742
  -2.983   0.038   1.742
  -2.983  -0.284   1.742
  -2.914  -0.599   1.742
  -2.778  -0.891   1.742
  -2.584  -1.147   1.742
  -3.130   0.508   1.560
  -3.218   0.198   1.560
  -3.248  -0.123   1.560
  -3.218  -0.444   1.560
  -3.130  -0.754   1.560
  -2.986  -1.042   1.560
  -2.792  -1.299   1.560
  -2.554  -1.516   1.560
  -3.475   0.036   1.351
  -3.475  -0.282   1.351
  -3.424  -0.597   1.351
  -3.323  -0.899   1.351
  -3.175  -1.181   1.351
  -2.984  -1.436   1.351
  -2.754  -1.657   1.351
  -2.492  -1.838   1.351
  -3.685  -0.283   1.117
  -3.639  -0.599   1.117
  -3.547  -0.905   1.117
  -3.411  -1.194   1.117
  -3.235  -1.461   1.117
  -3.021  -1.699   1.117
  -2.776  -1.903   1.117
  -3.825  -0.595   0.861
  -3.742  -0.901   0.861
  -3.618  -1.192   0.861
  -3.457  -1.465   0.861
  -3.260  -1.713   0.861
  -3.033  -1.933   0.861
  -2.778  -2.121   0.861
  -3.945  -0.750   0.586
  -3.848  -1.052   0.586
  -3.713  -1.338   0.586
  -3.543  -1.606   0.586
  -3.341  -1.850   0.586
  -3.110  -2.067   0.586
  -2.854  -2.253   0.586
  -3.973  -1.060   0.296
  -3.842  -1.351   0.296
  -3.677  -1.624   0.296
  -3.480  -1.876   0.296
  -3.255  -2.101   0.296
  -3.003  -2.298   0.296
  -2.730  -2.463   0.296
  -3.941  -1.348  -0.006
  -3.783  -1.623  -0.006
  -3.593  -1.878  -0.006
  -3.375  -2.109  -0.006
  -3.132  -2.313  -0.006
  -2.867  -2.487  -0.006
  -3.925  -1.491  -0.315
  -3.753  -1.758  -0.315
  -3.552  -2.004  -0.315
  -3.324  -2.226  -0.315
  -3.073  -2.420  -0.315
  -2.800  -2.584  -0.315
  -3.691  -1.869  -0.629
  -3.482  -2.103  -0.629
  -3.248  -2.312  -0.629
  -2.992  -2.494  -0.629
  -2.717  -2.646  -0.629
  -3.552  -2.004  -0.942
  -3.324  -2.226  -0.942
  -3.073  -2.420  -0.942
  -2.800  -2.584  -0.942
  -2.511  -2.716  -0.942
  -3.132  -2.313  -1.252
  -2.867  -2.487  -1.252
  -2.583  -2.630  -1.252
  -3.003  -2.298  -1.554
  -2.730  -2.463  -1.554
  -2.439  -2.594  -1.554
  -2.854  -2.253  -1.844
  -2.576  -2.406  -1.844
  -2.282  -2.522  -1.844
  -2.500  -2.274  -2.119
  -2.204  -2.387  -2.119
  -1.896  -2.461  -2.119
  -2.209  -2.195  -2.375
  -1.900  -2.276  -2.375
  -1.582  -2.311  -2.375
  -1.898  -2.063  -2.609
  -1.582  -2.101  -2.609
  -1.263  -2.088  -2.609
  -1.663  -1.861  -2.818
  -1.341  -1.861  -2.818
  -1.024  -1.802  -2.818
  -0.804  -1.439  -3.000
  -3.451   0.508   1.416
  -3.715   0.329   1.248
  -4.052   0.501   1.047
  -3.954   0.158   1.047
  -3.795  -0.161   1.047
  -4.280   0.331   0.815
  -4.169  -0.003   0.815
  -4.005  -0.316   0.815
  -4.518   0.329   0.556
  -4.416  -0.010   0.556
  -4.266  -0.330   0.556
  -4.070  -0.625   0.556
  -4.771   0.681   0.272
  -4.724   0.333   0.272
  -4.632  -0.005   0.272
  -4.495  -0.328   0.272
  -4.316  -0.630   0.272
  -4.099  -0.905   0.272
  -4.945   0.856  -0.032
  -4.923   0.506  -0.032
  -4.857   0.161  -0.032
  -4.749  -0.172  -0.032
  -4.600  -0.490  -0.032
  -4.412  -0.786  -0.032
  -4.188  -1.056  -0.032
  -5.078   0.856  -0.353
  -5.057   0.503  -0.353
  -5.154   1.207  -0.687
  -5.187   1.381  -1.030
  -5.078   1.880  -1.377
  -4.990   2.055  -1.724
  -1.976   3.873  -2.067
  -2.328   3.873  -2.067
  -4.677   2.517  -2.067
  -4.853   2.212  -2.067
  -2.505   3.761  -2.401
  -2.852   3.697  -2.401
  -3.190   3.592  -2.401
  -3.512   3.447  -2.401
  -3.814   3.264  -2.401
  -4.092   3.046  -2.401
  -4.342   2.796  -2.401
  -4.560   2.518  -2.401
  -4.743   2.216  -2.401
  -2.675   3.600  -2.722
  -3.015   3.512  -2.722
  -3.341   3.383  -2.722
  -3.649   3.214  -2.722
  -3.932   3.008  -2.722
  -4.188   2.768  -2.722
  -4.412   2.498  -2.722
  -4.600   2.202  -2.722
  -1.977  -1.931  -2.722
  -2.930   3.363  -3.026
  -3.257   3.237  -3.026
  -3.564   3.068  -3.026
  -3.847   2.860  -3.026
  -4.099   2.617  -3.026
  -4.316   2.342  -3.026
  -1.889  -1.756  -3.026
  -1.544  -1.697  -3.026
  -1.209  -1.593  -3.026
  -0.891  -1.446  -3.026
  -0.595  -1.257  -3.026
  -2.935   3.150  -3.310
  -3.260   3.011  -3.310
  -3.562   2.827  -3.310
  -3.834   2.601  -3.310
  -4.070   2.337  -3.310
  -1.887  -1.553  -3.310
  -1.539  -1.489  -3.310
  -1.204  -1.375  -3.310
  -0.889  -1.213  -3.310
  -0.602  -1.007  -3.310
  -0.347  -0.761  -3.310
  -3.248   2.754  -3.569
  -3.538   2.554  -3.569
  -3.793   2.310  -3.569
  -1.542  -1.249  -3.569
  -1.212  -1.124  -3.569
  -0.907  -0.948  -3.569
  -0.634  -0.725  -3.569
  -3.014   2.586  -3.801
  -3.317   2.398  -3.801
  -3.580   2.158  -3.801
  -1.623  -1.003  -3.801
  -1.290  -0.874  -3.801
  -0.987  -0.686  -3.801
  -3.078   2.221  -4.002
  -3.349   1.990  -4.002
  -1.711  -0.733  -4.002
  -1.379  -0.601  -4.002
  -3.103   1.807  -4.170
  -1.804  -0.443  -4.170
  -1.479  -0.309  -4.170
  -2.936   1.514  -4.303
  -1.974  -0.152  -4.303
  -2.749   1.201  -4.399
  -2.152   0.166  -4.399
  -2.703   1.892   1.833
  -2.848   1.640   1.833
  -2.703   1.388   1.833
  -2.846   2.141   1.784
  -3.058   1.929   1.784
  -3.136   1.640   1.784
  -3.058   1.351   1.784
  -2.846   1.139   1.784
  -2.706   2.486   1.703
  -2.986   2.384   1.703
  -3.215   2.192   1.703
  -3.364   1.934   1.703
  -3.416   1.640   1.703
  -3.364   1.346   1.703
  -3.215   1.088   1.703
  -2.986   0.896   1.703
  -2.557   2.768   1.592
  -2.849   2.730   1.592
  -3.121   2.617   1.592
  -3.355   2.438   1.592
  -3.534   2.204   1.592
  -3.647   1.932   1.592
  -3.685   1.640   1.592
  -3.647   1.348   1.592
  -3.534   1.076   1.592
  -3.355   0.842   1.592
  -3.121   0.663   1.592
  -2.781   3.005   1.450
  -3.069   2.925   1.450
  -3.333   2.785   1.450
  -3.561   2.591   1.450
  -3.742   2.353   1.450
  -3.868   2.082   1.450
  -3.932   1.790   1.450
  -3.932   1.490   1.450
  -3.868   1.198   1.450
  -3.742   0.927   1.450
  -3.561   0.689   1.450
  -2.707   3.254   1.282
  -3.001   3.199   1.282
  -3.280   3.091   1.282
  -3.534   2.934   1.282
  -3.755   2.732   1.282
  -3.935   2.493   1.282
  -4.069   2.226   1.282
  -4.150   1.938   1.282
  -4.178   1.640   1.282
  -4.150   1.342   1.282
  -4.069   1.054   1.282
  -3.935   0.787   1.282
  -3.755   0.548   1.282
  -2.631   3.477   1.087
  -2.925   3.441   1.087
  -3.209   3.359   1.087
  -3.476   3.232   1.087
  -3.720   3.064   1.087
  -3.933   2.859   1.087
  -4.111   2.623   1.087
  -4.248   2.361   1.087
  -4.342   2.080   1.087
  -4.390   1.788   1.087
  -4.390   1.492   1.087
  -4.342   1.200   1.087
  -4.248   0.919   1.087
  -4.111   0.657   1.087
  -2.335   3.661   0.870
  -2.631   3.671   0.870
  -2.926   3.639   0.870
  -3.213   3.564   0.870
  -3.486   3.448   0.870
  -3.740   3.293   0.870
  -3.968   3.103   0.870
  -4.166   2.882   0.870
  -4.330   2.635   0.870
  -4.456   2.366   0.870
  -4.541   2.082   0.870
  -4.584   1.788   0.870
  -4.584   1.492   0.870
  -4.541   1.198   0.870
  -4.456   0.914   0.870
  -4.330   0.645   0.870
  -2.337   3.830   0.632
  -2.631   3.840   0.632
  -2.923   3.811   0.632
  -3.209   3.743   0.632
  -3.484   3.637   0.632
  -3.742   3.496   0.632
  -3.978   3.321   0.632
  -4.190   3.117   0.632
  -4.372   2.886   0.632
  -4.522   2.633   0.632
  -4.637   2.362   0.632
  -4.714   2.079   0.632
  -4.754   1.787   0.632
  -4.754   1.493   0.632
  -4.714   1.202   0.632
  -4.637   0.918   0.632
  -4.522   0.647   0.632
  -2.118   3.941   0.377
  -2.410   3.978   0.377
  -2.704   3.978   0.377
  -2.996   3.941   0.377
  -3.281   3.868   0.377
  -3.554   3.760   0.377
  -3.812   3.618   0.377
  -4.050   3.445   0.377
  -4.265   3.244   0.377
  -4.452   3.017   0.377
  -4.610   2.769   0.377
  -4.735   2.502   0.377
  -4.826   2.223   0.377
  -4.881   1.934   0.377
  -4.900   1.640   0.377
  -4.881   1.346   0.377
  -4.826   1.057   0.377
  -4.735   0.778   0.377
  -1.970   4.023   0.108
  -2.261   4.076   0.108
  -2.557   4.094   0.108
  -2.853   4.076   0.108
  -3.144   4.023   0.108
  -3.427   3.935   0.108
  -3.697   3.813   0.108
  -3.951   3.660   0.108
  -4.184   3.477   0.108
  -4.394   3.267   0.108
  -4.577   3.034   0.108
  -4.730   2.780   0.108
  -4.852   2.510   0.108
  -4.940   2.227   0.108
  -4.993   1.936   0.108
  -5.011   1.640   0.108
  -4.993   1.344   0.108
  -4.940   1.053   0.108
  -1.830   4.068  -0.172
  -2.117   4.136  -0.172
  -2.410   4.171  -0.172
  -2.704   4.171  -0.172
  -2.997   4.136  -0.172
  -3.284   4.068  -0.172
  -3.561   3.968  -0.172
  -3.824   3.835  -0.172
  -4.071   3.673  -0.172