 $system timlim=999888777
         mwords=100 $end
 $contrl exetyp=run
         runtyp=energy scftyp=rhf
         icharg=-1 mult=1 units=angs coord=unique
         maxit=50 ispher=1 qmttol=1d-6 icut=12 itol=22 $end
 $scf    dirscf=.t. diis=.t. soscf=.f.
         fdiff=.f. conv=1d-6
         npreo(1)=0,-1,1,9999 $end
 $elpot  iepot=1 where=points $end
 $basis  gbasis=n311 ngauss=6
         ndfunc=1 npfunc=1 diffsp=.t. diffs=.t. $end
 $DATA
TS1a_hfd_irc200_all_revmov.pdb
C1
P     15.0     0.00300   0.03200  -0.01400 
O      8.0     0.06600  -0.14300   1.60900 
O      8.0     1.21600   0.21600  -0.86200 
F      9.0     0.00400  -1.63000  -0.03100 
O      8.0    -1.50200  -0.12300  -0.62900 
C      6.0    -2.15200   0.85600  -1.37700 
H      1.0    -2.54600   1.64800  -0.75200 
H      1.0    -1.49700   1.29600  -2.12200 
H      1.0    -2.97000   0.35700  -1.88800 
C      6.0     0.55700   0.82100   2.48500 
H      1.0     0.75400   0.30800   3.42300 
H      1.0     1.48500   1.25800   2.13000 
H      1.0    -0.15700   1.61700   2.65300 
O      8.0    -0.27500   1.74100   0.19600 
H      1.0     0.42100   2.16000  -0.28800 
 $END
 $POINTS
ANGS 3054
   2.608  -1.400   1.418
   2.761  -1.416   1.076
   2.915  -1.073   1.076
   3.027  -0.713   1.076
   2.878  -1.412   0.720
  -0.368  -1.351  -2.987
   0.003  -1.400  -2.987
  -0.186  -1.041  -3.129
   0.003  -0.702  -3.231
  -1.607  -1.201   3.589
  -1.416  -1.456   3.589
  -1.186  -1.677   3.589
  -0.924  -1.858   3.589
  -0.636  -1.994   3.589
  -0.330  -2.083   3.589
  -2.071  -0.619   3.355
  -1.979  -0.925   3.355
  -1.843  -1.214   3.355
  -1.667  -1.481   3.355
  -1.453  -1.719   3.355
  -1.208  -1.923   3.355
  -0.935  -2.090   3.355
  -0.641  -2.215   3.355
  -0.332  -2.296   3.355
  -0.014  -2.331   3.355
   0.305  -2.319   3.355
  -2.300  -0.301   3.099
  -2.257  -0.615   3.099
  -2.174  -0.921   3.099
  -2.050  -1.212   3.099
  -1.889  -1.485   3.099
  -1.692  -1.733   3.099
  -1.465  -1.953   3.099
  -1.210  -2.141   3.099
  -0.932  -2.294   3.099
  -0.636  -2.407   3.099
  -0.328  -2.481   3.099
  -0.013  -2.513   3.099
   0.303  -2.502   3.099
   0.616  -2.449   3.099
   0.918  -2.355   3.099
  -2.457  -0.143   2.824
  -2.437  -0.459   2.824
  -2.377  -0.770   2.824
  -2.280  -1.072   2.824
  -2.145  -1.358   2.824
  -1.975  -1.626   2.824
  -1.773  -1.870   2.824
  -1.542  -2.087   2.824
  -1.286  -2.273   2.824
  -1.008  -2.426   2.824
  -0.714  -2.542   2.824
  -0.407  -2.621   2.824
  -0.092  -2.661   2.824
   0.224  -2.661   2.824
   0.539  -2.621   2.824
   0.846  -2.542   2.824
   1.140  -2.426   2.824
   1.418  -2.273   2.824
   1.674  -2.087   2.824
  -2.558   0.176   2.534
  -2.577  -0.143   2.534
  -2.558  -0.462   2.534
  -2.500  -0.775   2.534
  -2.405  -1.080   2.534
  -2.274  -1.371   2.534
  -2.109  -1.644   2.534
  -1.912  -1.896   2.534
  -1.687  -2.121   2.534
  -1.435  -2.318   2.534
  -1.162  -2.483   2.534
  -0.871  -2.614   2.534
   1.003  -2.614   2.534
   1.294  -2.483   2.534
   1.567  -2.318   2.534
   1.819  -2.121   2.534
  -2.590   0.487   2.232
  -2.645   0.174   2.232
  -2.664  -0.143   2.232
  -2.645  -0.460   2.232
  -2.590  -0.773   2.232
  -2.499  -1.077   2.232
  -2.373  -1.368   2.232
  -2.215  -1.643   2.232
  -2.025  -1.898   2.232
  -1.807  -2.129   2.232
   1.696  -2.333   2.232
   1.939  -2.129   2.232
   2.157  -1.898   2.232
  -2.604   0.641   1.923
  -2.676   0.331   1.923
  -2.712   0.016   1.923
  -2.712  -0.302   1.923
  -2.676  -0.617   1.923
  -2.604  -0.927   1.923
  -2.497  -1.226   1.923
  -2.357  -1.511   1.923
  -2.185  -1.778   1.923
   2.220  -1.904   1.923
   2.407  -1.647   1.923
   2.437  -1.633   1.609
   2.589  -1.358   1.609
   3.042  -0.992   0.884
   3.198  -0.713   0.884
   3.312  -0.415   0.884
   3.382  -0.103   0.884
   3.587   0.216   0.628
   3.566   0.532   0.628
   2.864  -1.488   0.628
   3.077  -1.253   0.628
   3.256  -0.992   0.628
   3.399  -0.710   0.628
   3.503  -0.410   0.628
   3.566  -0.100   0.628
   3.739   0.216   0.353
   3.719   0.532   0.353
   3.659   0.843   0.353
   3.562   1.145   0.353
   3.427   1.431   0.353
   3.055  -1.511   0.353
   3.257  -1.267   0.353
   3.427  -0.999   0.353
   3.562  -0.713   0.353
   3.659  -0.411   0.353
   3.719  -0.100   0.353
   3.859   0.216   0.063
   3.840   0.535   0.063
   3.782   0.848   0.063
   3.687   1.153   0.063
   3.556   1.444   0.063
   3.391   1.717   0.063
   3.194   1.969   0.063
   2.969  -1.762   0.063
   3.194  -1.537   0.063
   3.391  -1.285   0.063
   3.556  -1.012   0.063
   3.687  -0.721   0.063
   3.782  -0.416   0.063
   3.840  -0.103   0.063
   3.946   0.216  -0.239
   3.927   0.533  -0.239
   3.872   0.846  -0.239
   3.781   1.150  -0.239
   3.655   1.441  -0.239
   3.497   1.716  -0.239
   3.307   1.971  -0.239
   3.089   2.202  -0.239
   2.846  -1.974  -0.239
   3.089  -1.770  -0.239
   3.307  -1.539  -0.239
   3.497  -1.284  -0.239
   3.655  -1.009  -0.239
   3.781  -0.718  -0.239
   3.872  -0.414  -0.239
   3.927  -0.101  -0.239
   3.998   0.216  -0.548
   3.980   0.533  -0.548
   3.926   0.846  -0.548
   3.837   1.151  -0.548
   3.713   1.444  -0.548
   3.557   1.720  -0.548
   3.370   1.977  -0.548
   3.155   2.211  -0.548
   2.915  -1.987  -0.548
   3.155  -1.779  -0.548
   3.370  -1.545  -0.548
   3.557  -1.288  -0.548
   3.713  -1.012  -0.548
   3.837  -0.719  -0.548
   3.926  -0.414  -0.548
   3.980  -0.101  -0.548
   4.016   0.216  -0.862
   3.998   0.530  -0.862
   3.946   0.839  -0.862
   3.859   1.141  -0.862
   3.739   1.431  -0.862
   3.587   1.706  -0.862
   3.405   1.962  -0.862
   3.196   2.196  -0.862
   2.962   2.405  -0.862
   2.706  -2.155  -0.862
   2.962  -1.973  -0.862
   3.196  -1.764  -0.862
   3.405  -1.530  -0.862
   3.587  -1.274  -0.862
   3.739  -0.999  -0.862
   3.859  -0.709  -0.862
   3.946  -0.407  -0.862
   3.998  -0.098  -0.862
   3.998   0.216  -1.175
   3.980   0.533  -1.175
   3.926   0.846  -1.175
   3.837   1.151  -1.175
   3.713   1.444  -1.175
   3.557   1.720  -1.175
   3.370   1.977  -1.175
   3.155   2.211  -1.175
   2.915   2.419  -1.175
   2.653  -2.167  -1.175
   2.915  -1.987  -1.175
   3.155  -1.779  -1.175
   3.370  -1.545  -1.175
   3.557  -1.288  -1.175
   3.713  -1.012  -1.175
   3.837  -0.719  -1.175
   3.926  -0.414  -1.175
   3.980  -0.101  -1.175
   3.946   0.216  -1.485
   3.927   0.533  -1.485
   3.872   0.846  -1.485
   3.781   1.150  -1.485
   3.655   1.441  -1.485
   3.497   1.716  -1.485
   3.307   1.971  -1.485
   3.089   2.202  -1.485
   2.846   2.406  -1.485
   2.581  -2.148  -1.485
   2.846  -1.974  -1.485
   3.089  -1.770  -1.485
   3.307  -1.539  -1.485
   3.497  -1.284  -1.485
   3.655  -1.009  -1.485
   3.781  -0.718  -1.485
   3.872  -0.414  -1.485
   3.927  -0.101  -1.485
   3.859   0.216  -1.787
   3.840   0.535  -1.787
   3.782   0.848  -1.787
   3.687   1.153  -1.787
   3.556   1.444  -1.787
   3.391   1.717  -1.787
   3.194   1.969  -1.787
   2.969   2.194  -1.787
   2.717   2.391  -1.787
   2.444  -2.124  -1.787
   2.717  -1.959  -1.787
   2.969  -1.762  -1.787
   3.194  -1.537  -1.787
   3.391  -1.285  -1.787
   3.556  -1.012  -1.787
   3.687  -0.721  -1.787
   3.782  -0.416  -1.787
   3.840  -0.103  -1.787
   3.739   0.216  -2.077
   3.719   0.532  -2.077
   3.659   0.843  -2.077
   3.562   1.145  -2.077
   3.427   1.431  -2.077
   3.257   1.699  -2.077
   3.055   1.943  -2.077
   2.824   2.160  -2.077
   2.568   2.346  -2.077
   2.290   2.499  -2.077
   1.996  -2.183  -2.077
   2.290  -2.067  -2.077
   2.568  -1.914  -2.077
   2.824  -1.728  -2.077
   3.055  -1.511  -2.077
   3.257  -1.267  -2.077
   3.427  -0.999  -2.077
   3.562  -0.713  -2.077
   3.659  -0.411  -2.077
   3.719  -0.100  -2.077
   3.587   0.216  -2.352
   3.566   0.532  -2.352
   3.503   0.842  -2.352
   3.399   1.142  -2.352
   3.256   1.424  -2.352
   3.077   1.685  -2.352
   2.864   1.920  -2.352
   2.622   2.125  -2.352
   2.355   2.295  -2.352
   2.068   2.428  -2.352
   1.766  -2.090  -2.352
   2.068  -1.996  -2.352
   2.355  -1.863  -2.352
   2.622  -1.693  -2.352
   2.864  -1.488  -2.352
   3.077  -1.253  -2.352
   3.256  -0.992  -2.352
   3.399  -0.710  -2.352
   3.503  -0.410  -2.352
   3.566  -0.100  -2.352
   3.405   0.216  -2.608
   3.382   0.535  -2.608
   3.312   0.847  -2.608
   3.198   1.145  -2.608
   3.042   1.424  -2.608
   2.846   1.677  -2.608
   2.616   1.899  -2.608
   2.356   2.085  -2.608
   2.072   2.231  -2.608
   1.770   2.334  -2.608
   1.455  -1.960  -2.608
   1.770  -1.902  -2.608
   2.072  -1.799  -2.608
   2.356  -1.653  -2.608
   2.616  -1.467  -2.608
   2.846  -1.245  -2.608
   3.042  -0.992  -2.608
   3.198  -0.713  -2.608
   3.312  -0.415  -2.608
   3.382  -0.103  -2.608
   3.196   0.216  -2.842
   3.170   0.534  -2.842
   3.094   0.843  -2.842
   2.969   1.136  -2.842
   2.799   1.405  -2.842
   2.588   1.644  -2.842
   2.341   1.845  -2.842
   2.065   2.005  -2.842
   1.767   2.118  -2.842
   1.455   2.181  -2.842
   1.136   2.194  -2.842
   0.820  -1.724  -2.842
   1.136  -1.762  -2.842
   1.455  -1.749  -2.842
   1.767  -1.686  -2.842
   2.065  -1.573  -2.842
   2.341  -1.413  -2.842
   2.588  -1.212  -2.842
   2.799  -0.973  -2.842
   2.969  -0.704  -2.842
   3.094  -0.411  -2.842
   3.170  -0.102  -2.842
   2.962   0.216  -3.051
   2.932   0.537  -3.051
   2.844   0.847  -3.051
   2.700   1.135  -3.051
   2.506   1.392  -3.051
   2.268   1.609  -3.051
   1.994   1.779  -3.051
   1.694   1.895  -3.051
   1.377   1.954  -3.051
   1.055   1.954  -3.051
   0.438  -1.347  -3.051
   0.738  -1.463  -3.051
   1.055  -1.522  -3.051
   1.377  -1.522  -3.051
   1.694  -1.463  -3.051
   1.994  -1.347  -3.051
   2.268  -1.177  -3.051
   2.506  -0.960  -3.051
   2.700  -0.703  -3.051
   2.844  -0.415  -3.051
   2.932  -0.105  -3.051
   2.706   0.216  -3.233
   2.671   0.536  -3.233
   2.568   0.842  -3.233
   2.402   1.118  -3.233
   2.180   1.351  -3.233
   1.914   1.532  -3.233
   1.615   1.651  -3.233
   1.297   1.704  -3.233
   0.975   1.686  -3.233
   0.134  -0.808  -3.233
   0.380  -1.017  -3.233
   0.665  -1.168  -3.233
   0.975  -1.254  -3.233
   1.297  -1.272  -3.233
   1.615  -1.219  -3.233
   1.914  -1.100  -3.233
   2.180  -0.919  -3.233
   2.402  -0.686  -3.233
   2.568  -0.410  -3.233
   2.671  -0.104  -3.233
   2.431   0.216  -3.385
   2.389   0.530  -3.385
   2.268   0.823  -3.385
   2.075   1.075  -3.385
   1.823   1.268  -3.385
   1.530   1.389  -3.385
   1.216   1.431  -3.385
   0.902   1.389  -3.385
   0.164  -0.391  -3.385
   0.357  -0.643  -3.385
   0.609  -0.836  -3.385
   0.902  -0.957  -3.385
   1.216  -0.999  -3.385
   1.530  -0.957  -3.385
   1.823  -0.836  -3.385
   2.075  -0.643  -3.385
   2.268  -0.391  -3.385
   2.389  -0.098  -3.385
   2.141   0.216  -3.505
   2.085   0.532  -3.505
   1.924   0.810  -3.505
   1.678   1.017  -3.505
   1.377   1.127  -3.505
   1.055   1.127  -3.505
   0.754   1.017  -3.505
   0.347  -0.100  -3.505
   0.508  -0.378  -3.505
   0.754  -0.585  -3.505
   1.055  -0.695  -3.505
   1.377  -0.695  -3.505
   1.678  -0.585  -3.505
   1.924  -0.378  -3.505
   2.085  -0.100  -3.505
   1.839   0.216  -3.592
   1.756   0.528  -3.592
   1.528   0.756  -3.592
   1.216   0.839  -3.592
   0.904   0.756  -3.592
   0.676   0.528  -3.592
   0.593   0.216  -3.592
   0.676  -0.096  -3.592
   0.904  -0.324  -3.592
   1.216  -0.407  -3.592
   1.528  -0.324  -3.592
   1.756  -0.096  -3.592
   1.530   0.216  -3.644
   1.373   0.488  -3.644
   1.059   0.488  -3.644
   0.902   0.216  -3.644
   1.059  -0.056  -3.644
   1.373  -0.056  -3.644
   1.216   0.216  -3.662
  -0.619  -2.708   2.555
  -0.318  -2.833   2.555
   0.004  -2.875   2.555
   0.326  -2.833   2.555
  -1.105  -2.680   2.399
  -0.853  -2.894   2.399
  -0.561  -3.048   2.399
  -0.243  -3.137   2.399
   0.087  -3.155   2.399
   0.412  -3.101   2.399
   0.719  -2.979   2.399
   0.993  -2.794   2.399
  -1.665  -2.276   2.213
  -1.517  -2.572   2.213
  -1.318  -2.836   2.213
  -1.074  -3.058   2.213
  -0.794  -3.232   2.213
  -0.486  -3.351   2.213
  -0.161  -3.412   2.213
   0.169  -3.412   2.213
   0.494  -3.351   2.213
   0.802  -3.232   2.213
   1.082  -3.058   2.213
   1.326  -2.836   2.213
   1.525  -2.572   2.213
  -1.966  -2.116   1.998
  -1.863  -2.425   1.998
  -1.711  -2.715   1.998
  -1.515  -2.976   1.998
  -1.279  -3.202   1.998
  -1.011  -3.388   1.998
  -0.716  -3.528   1.998
  -0.402  -3.618   1.998
  -0.078  -3.658   1.998
   0.249  -3.645   1.998
   0.569  -3.579   1.998
   0.874  -3.463   1.998
   1.157  -3.300   1.998
   1.410  -3.094   1.998
   1.626  -2.849   1.998
   1.801  -2.573   1.998
   1.929  -2.273   1.998
  -2.234  -1.794   1.758
  -2.186  -2.118   1.758
  -2.092  -2.432   1.758
  -1.953  -2.728   1.758
  -1.772  -3.001   1.758
  -1.553  -3.245   1.758
  -1.302  -3.455   1.758
  -1.022  -3.626   1.758
  -0.721  -3.754   1.758
  -0.404  -3.837   1.758
  -0.078  -3.872   1.758
   0.249  -3.860   1.758
   0.572  -3.801   1.758
   0.882  -3.695   1.758
   1.173  -3.545   1.758
   1.439  -3.355   1.758
   1.675  -3.127   1.758
   1.875  -2.868   1.758
   2.036  -2.582   1.758
   2.153  -2.276   1.758
   2.224  -1.957   1.758
  -2.421  -1.792   1.496
  -2.377  -2.114   1.496
  -2.292  -2.427   1.496
  -2.165  -2.726   1.496
  -1.999  -3.005   1.496
  -1.798  -3.260   1.496
  -1.565  -3.486   1.496
  -1.304  -3.678   1.496
  -1.019  -3.834   1.496
  -0.716  -3.951   1.496
  -0.400  -4.026   1.496
  -0.077  -4.059   1.496
   0.247  -4.048   1.496
   0.567  -3.994   1.496
   0.877  -3.898   1.496
   1.172  -3.761   1.496
   1.445  -3.586   1.496
   1.693  -3.377   1.496
   1.911  -3.136   1.496
   2.095  -2.868   1.496
   2.241  -2.579   1.496
   2.348  -2.272   1.496
   2.412  -1.954   1.496
   2.590  -1.630   1.214
  -2.561  -1.954   1.214
  -2.501  -2.273   1.214
  -2.400  -2.582   1.214
  -2.262  -2.876   1.214
  -2.088  -3.150   1.214
  -1.881  -3.400   1.214
  -1.644  -3.622   1.214
  -1.382  -3.813   1.214
  -1.097  -3.970   1.214
  -0.795  -4.089   1.214
  -0.481  -4.170   1.214
  -0.158  -4.211   1.214
   0.166  -4.211   1.214
   0.489  -4.170   1.214
   0.803  -4.089   1.214
   1.105  -3.970   1.214
   1.390  -3.813   1.214
   1.652  -3.622   1.214
   1.889  -3.400   1.214
   2.096  -3.150   1.214
   2.270  -2.876   1.214
   2.408  -2.582   1.214
   2.509  -2.273   1.214
   2.569  -1.954   1.214
   2.713  -1.630   0.917
  -2.626  -2.278   0.917
  -2.529  -2.591   0.917
  -2.395  -2.889   0.917
  -2.225  -3.169   0.917
  -2.024  -3.426   0.917
  -1.792  -3.658   0.917
  -1.535  -3.859   0.917
  -1.255  -4.029   0.917
  -0.957  -4.163   0.917
  -0.644  -4.260   0.917
  -0.323  -4.319   0.917
   0.004  -4.339   0.917
   0.331  -4.319   0.917
   0.652  -4.260   0.917
   0.965  -4.163   0.917
   1.263  -4.029   0.917
   1.543  -3.859   0.917
   1.800  -3.658   0.917
   2.032  -3.426   0.917
   2.233  -3.169   0.917
   2.403  -2.889   0.917
   2.537  -2.591   0.917
   2.634  -2.278   0.917
   2.693  -1.957   0.917
   2.802  -1.630   0.608
  -2.625  -2.587   0.608
  -2.496  -2.886   0.608
  -2.334  -3.168   0.608
  -2.139  -3.429   0.608
  -1.916  -3.665   0.608
  -1.667  -3.874   0.608
  -1.395  -4.053   0.608
  -1.104  -4.199   0.608
  -0.798  -4.310   0.608
  -0.482  -4.386   0.608
  -0.159  -4.423   0.608
   0.167  -4.423   0.608
   0.490  -4.386   0.608
   0.806  -4.310   0.608
   1.112  -4.199   0.608
   1.403  -4.053   0.608
   1.675  -3.874   0.608
   1.924  -3.665   0.608
   2.147  -3.429   0.608
   2.342  -3.168   0.608
   2.504  -2.886   0.608
   2.633  -2.587   0.608
   2.727  -2.275   0.608
   2.783  -1.955   0.608
  -2.623  -2.740   0.290
  -2.479  -3.032   0.290
  -2.303  -3.306   0.290
  -2.097  -3.558   0.290
  -1.864  -3.785   0.290
  -1.606  -3.984   0.290
  -1.327  -4.152   0.290
  -1.031  -4.288   0.290
  -0.721  -4.388   0.290
  -0.402  -4.453   0.290
  -0.077  -4.481   0.290
   0.248  -4.471   0.290
   0.570  -4.425   0.290
   0.885  -4.342   0.290
   1.189  -4.224   0.290
   1.477  -4.072   0.290
   1.746  -3.888   0.290
   1.992  -3.675   0.290
   2.212  -3.435   0.290
   2.403  -3.172   0.290
   2.563  -2.888   0.290
   2.690  -2.588   0.290
   2.782  -2.276   0.290
   2.837  -1.955   0.290
  -2.582  -2.875  -0.031
  -2.426  -3.157  -0.031
  -2.240  -3.419  -0.031
  -2.025  -3.659  -0.031
  -1.785  -3.874  -0.031
  -1.523  -4.060  -0.031
  -1.241  -4.216  -0.031
  -0.944  -4.339  -0.031
  -0.635  -4.428  -0.031
  -0.317  -4.482  -0.031
   0.004  -4.500  -0.031
   0.325  -4.482  -0.031
   0.643  -4.428  -0.031
   0.952  -4.339  -0.031
   1.249  -4.216  -0.031
   1.531  -4.060  -0.031
   1.793  -3.874  -0.031
   2.033  -3.659  -0.031
   2.248  -3.419  -0.031
   2.434  -3.157  -0.031
   2.590  -2.875  -0.031
   2.713  -2.578  -0.031
   2.802  -2.269  -0.031
   2.856  -1.951  -0.031
  -2.623  -2.740  -0.352
  -2.479  -3.032  -0.352
  -2.303  -3.306  -0.352
  -2.097  -3.558  -0.352
  -1.864  -3.785  -0.352
  -1.606  -3.984  -0.352
  -1.327  -4.152  -0.352
  -1.031  -4.288  -0.352
  -0.721  -4.388  -0.352
  -0.402  -4.453  -0.352
  -0.077  -4.481  -0.352
   0.248  -4.471  -0.352
   0.570  -4.425  -0.352
   0.885  -4.342  -0.352
   1.189  -4.224  -0.352
   1.477  -4.072  -0.352
   1.746  -3.888  -0.352
   1.992  -3.675  -0.352
   2.212  -3.435  -0.352
   2.403  -3.172  -0.352
   2.563  -2.888  -0.352
   2.690  -2.588  -0.352
   2.782  -2.276  -0.352
  -2.496  -2.886  -0.670
  -2.334  -3.168  -0.670
  -2.139  -3.429  -0.670
  -1.916  -3.665  -0.670
  -1.667  -3.874  -0.670
  -1.395  -4.053  -0.670
  -1.104  -4.199  -0.670
  -0.798  -4.310  -0.670
  -0.482  -4.386  -0.670
  -0.159  -4.423  -0.670
   0.167  -4.423  -0.670
   0.490  -4.386  -0.670
   0.806  -4.311  -0.670
   1.112  -4.199  -0.670
   1.403  -4.053  -0.670
   1.675  -3.874  -0.670
   1.924  -3.665  -0.670
   2.147  -3.429  -0.670
   2.342  -3.168  -0.670
   2.504  -2.886  -0.670
   2.633  -2.587  -0.670
   2.727  -2.275  -0.670
  -2.395  -2.889  -0.979
  -2.225  -3.169  -0.979
  -2.024  -3.426  -0.979
  -1.792  -3.658  -0.979
  -1.535  -3.859  -0.979
  -1.255  -4.029  -0.979
  -0.957  -4.163  -0.979
  -0.644  -4.260  -0.979
  -0.323  -4.319  -0.979
   0.004  -4.339  -0.979
   0.331  -4.319  -0.979
   0.652  -4.260  -0.979
   0.965  -4.163  -0.979
   1.263  -4.029  -0.979
   1.543  -3.859  -0.979
   1.800  -3.658  -0.979
   2.032  -3.426  -0.979
   2.233  -3.169  -0.979
   2.403  -2.889  -0.979
   2.537  -2.591  -0.979
   2.634  -2.278  -0.979
  -2.262  -2.876  -1.276
  -2.088  -3.150  -1.276
  -1.881  -3.400  -1.276
  -1.644  -3.622  -1.276
  -1.382  -3.813  -1.276
  -1.097  -3.970  -1.276
  -0.795  -4.089  -1.276
  -0.481  -4.170  -1.276
  -0.158  -4.211  -1.276
   0.166  -4.211  -1.276
   0.489  -4.170  -1.276
   0.803  -4.089  -1.276
   1.105  -3.970  -1.276
   1.390  -3.813  -1.276
   1.652  -3.622  -1.276
   1.889  -3.400  -1.276
   2.096  -3.150  -1.276
   2.270  -2.876  -1.276
   2.408  -2.582  -1.276
   2.509  -2.273  -1.276
  -2.165  -2.726  -1.558
  -1.999  -3.005  -1.558
  -1.798  -3.260  -1.558
  -1.565  -3.486  -1.558
  -1.304  -3.678  -1.558
  -1.019  -3.834  -1.558
  -0.716  -3.951  -1.558
  -0.400  -4.026  -1.558
  -0.077  -4.059  -1.558
   0.247  -4.048  -1.558
   0.567  -3.994  -1.558
   0.877  -3.898  -1.558
   1.172  -3.761  -1.558
   1.445  -3.586  -1.558
   1.693  -3.377  -1.558
   1.911  -3.136  -1.558
   2.095  -2.868  -1.558
   2.241  -2.579  -1.558
   2.348  -2.272  -1.558
  -1.953  -2.728  -1.820
  -1.772  -3.001  -1.820
  -1.553  -3.245  -1.820
  -1.302  -3.455  -1.820
  -1.022  -3.626  -1.820
  -0.721  -3.754  -1.820
  -0.404  -3.837  -1.820
  -0.078  -3.872  -1.820
   0.249  -3.860  -1.820
   0.572  -3.801  -1.820
   0.882  -3.695  -1.820
   1.173  -3.545  -1.820
   1.439  -3.355  -1.820
   1.675  -3.127  -1.820
   1.875  -2.868  -1.820
   2.036  -2.582  -1.820
   2.153  -2.276  -1.820
  -1.711  -2.715  -2.060
  -1.515  -2.976  -2.060
  -1.279  -3.202  -2.060
  -1.011  -3.388  -2.060
  -0.716  -3.528  -2.060
  -0.402  -3.618  -2.060
  -0.078  -3.658  -2.060
   0.249  -3.645  -2.060
   0.569  -3.579  -2.060
   0.874  -3.463  -2.060
   1.157  -3.300  -2.060
   1.410  -3.094  -2.060
   1.626  -2.849  -2.060
   1.801  -2.573  -2.060
   1.929  -2.273  -2.060
  -1.517  -2.572  -2.275
  -1.318  -2.836  -2.275
  -1.074  -3.058  -2.275
  -0.794  -3.232  -2.275
  -0.486  -3.351  -2.275
  -0.161  -3.412  -2.275
   0.169  -3.412  -2.275
   0.494  -3.351  -2.275
   0.802  -3.232  -2.275
   1.082  -3.058  -2.275
   1.326  -2.836  -2.275
   1.525  -2.572  -2.275
   1.673  -2.276  -2.275
  -1.304  -2.417  -2.461
  -1.105  -2.680  -2.461
  -0.853  -2.894  -2.461
  -0.561  -3.048  -2.461
  -0.243  -3.137  -2.461
   0.087  -3.155  -2.461
   0.412  -3.101  -2.461
   0.719  -2.979  -2.461
   0.993  -2.794  -2.461
   1.220  -2.554  -2.461
   1.390  -2.271  -2.461
  -1.074  -2.253  -2.617
  -0.877  -2.511  -2.617
  -0.619  -2.708  -2.617
  -0.318  -2.833  -2.617
   0.004  -2.875  -2.617
   0.326  -2.833  -2.617
   0.627  -2.708  -2.617
   0.885  -2.511  -2.617
   1.082  -2.253  -2.617
  -0.887  -1.954  -2.740
  -0.722  -2.239  -2.740
  -0.470  -2.451  -2.740
  -0.161  -2.564  -2.740
   0.169  -2.564  -2.740
   0.478  -2.451  -2.740
   0.730  -2.239  -2.740
   0.895  -1.954  -2.740
  -0.635  -1.630  -2.829
  -0.549  -1.949  -2.829
  -0.315  -2.183  -2.829
   0.004  -2.269  -2.829
   0.323  -2.183  -2.829
   0.557  -1.949  -2.829
   0.325  -1.630  -2.883
  -0.317  -1.630  -2.883
  -0.157  -1.908  -2.883
   0.165  -1.908  -2.883
   0.004  -1.630  -2.901
  -2.778   0.645   1.742
  -2.914   0.353   1.742
  -2.983   0.038   1.742
  -2.983  -0.284   1.742
  -2.914  -0.599   1.742
  -2.778  -0.891   1.742
  -2.584  -1.147   1.742
  -3.130   0.508   1.560
  -3.218   0.198   1.560
  -3.248  -0.123   1.560
  -3.218  -0.444   1.560
  -3.130  -0.754   1.560
  -2.986  -1.042   1.560
  -2.792  -1.299   1.560
  -2.554  -1.516   1.560
  -3.475   0.036   1.351
  -3.475  -0.282   1.351
  -3.424  -0.597   1.351
  -3.323  -0.899   1.351
  -3.175  -1.181   1.351
  -2.984  -1.436   1.351
  -2.754  -1.657   1.351
  -3.685  -0.283   1.117
  -3.639  -0.599   1.117
  -3.547  -0.905   1.117
  -3.411  -1.194   1.117
  -3.235  -1.461   1.117
  -3.021  -1.699   1.117
  -2.776  -1.903   1.117
  -3.825  -0.595   0.861
  -3.742  -0.901   0.861
  -3.618  -1.192   0.861
  -3.457  -1.465   0.861
  -3.260  -1.713   0.861
  -3.033  -1.933   0.861
  -2.778  -2.121   0.861
  -3.945  -0.750   0.586
  -3.848  -1.052   0.586
  -3.713  -1.338   0.586
  -3.543  -1.606   0.586
  -3.341  -1.850   0.586
  -3.110  -2.067   0.586
  -2.854  -2.253   0.586
  -3.973  -1.060   0.296
  -3.842  -1.351   0.296
  -3.677  -1.624   0.296
  -3.480  -1.876   0.296
  -3.255  -2.101   0.296
  -3.003  -2.298   0.296
  -2.730  -2.463   0.296
  -3.941  -1.348  -0.006
  -3.783  -1.623  -0.006
  -3.593  -1.878  -0.006
  -3.375  -2.109  -0.006
  -3.132  -2.313  -0.006
  -2.867  -2.487  -0.006
  -3.925  -1.491  -0.315
  -3.753  -1.758  -0.315
  -3.552  -2.004  -0.315
  -3.324  -2.226  -0.315
  -3.073  -2.420  -0.315
  -2.800  -2.584  -0.315
  -3.691  -1.869  -0.629
  -3.482  -2.103  -0.629
  -3.248  -2.312  -0.629
  -2.992  -2.494  -0.629
  -2.717  -2.646  -0.629
  -3.552  -2.004  -0.942
  -3.324  -2.226  -0.942
  -3.073  -2.420  -0.942
  -2.800  -2.584  -0.942
  -2.511  -2.716  -0.942
  -3.132  -2.313  -1.252
  -2.867  -2.487  -1.252
  -2.583  -2.630  -1.252
  -3.003  -2.298  -1.554
  -2.730  -2.463  -1.554
  -2.439  -2.594  -1.554
  -2.854  -2.253  -1.844
  -2.576  -2.406  -1.844
  -2.282  -2.522  -1.844
  -2.500  -2.274  -2.119
  -2.204  -2.387  -2.119
  -1.896  -2.461  -2.119
  -2.209  -2.195  -2.375
  -1.900  -2.276  -2.375
  -1.582  -2.311  -2.375
  -1.898  -2.063  -2.609
  -1.582  -2.101  -2.609
  -1.263  -2.088  -2.609
  -1.663  -1.861  -2.818
  -1.341  -1.861  -2.818
  -1.024  -1.802  -2.818
  -0.724  -1.686  -2.818
  -0.804  -1.439  -3.000
  -3.451   0.508   1.416
  -3.715   0.329   1.248
  -4.052   0.501   1.047
  -3.954   0.158   1.047
  -3.795  -0.161   1.047
  -4.280   0.331   0.815
  -4.169  -0.003   0.815
  -4.005  -0.316   0.815
  -4.518   0.329   0.556
  -4.416  -0.010   0.556
  -4.266  -0.330   0.556
  -4.070  -0.625   0.556
  -4.771   0.681   0.272
  -4.724   0.333   0.272
  -4.632  -0.005   0.272
  -4.495  -0.328   0.272
  -4.316  -0.630   0.272
  -4.099  -0.905   0.272
  -4.945   0.856  -0.032
  -4.923   0.506  -0.032
  -4.857   0.161  -0.032
  -4.749  -0.172  -0.032
  -4.600  -0.490  -0.032
  -4.412  -0.786  -0.032
  -4.188  -1.056  -0.032
  -5.078   0.856  -0.353
  -5.154   1.207  -0.687
  -5.078   1.880  -1.377
  -1.540   3.875  -1.724
  -4.990   2.055  -1.724
  -1.976   3.873  -2.067
  -4.677   2.517  -2.067
  -4.853   2.212  -2.067
  -2.505   3.761  -2.401
  -2.852   3.697  -2.401
  -3.190   3.592  -2.401
  -3.512   3.447  -2.401
  -3.814   3.264  -2.401
  -4.092   3.046  -2.401
  -4.342   2.796  -2.401
  -4.560   2.518  -2.401
  -4.743   2.216  -2.401
  -2.675   3.600  -2.722
  -3.015   3.512  -2.722
  -3.341   3.383  -2.722
  -3.649   3.214  -2.722
  -3.932   3.008  -2.722
  -4.188   2.768  -2.722
  -4.412   2.498  -2.722
  -1.977  -1.931  -2.722
  -2.930   3.363  -3.026
  -3.257   3.237  -3.026
  -3.564   3.068  -3.026
  -3.847   2.860  -3.026
  -4.099   2.617  -3.026
  -4.316   2.342  -3.026
  -1.889  -1.756  -3.026
  -1.544  -1.697  -3.026
  -1.209  -1.593  -3.026
  -0.891  -1.446  -3.026
  -0.595  -1.257  -3.026
  -2.935   3.150  -3.310
  -3.260   3.011  -3.310
  -3.562   2.827  -3.310
  -3.834   2.601  -3.310
  -4.070   2.337  -3.310
  -1.887  -1.553  -3.310
  -1.539  -1.489  -3.310
  -1.204  -1.375  -3.310
  -0.889  -1.213  -3.310
  -0.602  -1.007  -3.310
  -0.347  -0.761  -3.310
  -3.248   2.754  -3.569
  -3.538   2.554  -3.569
  -3.793   2.310  -3.569
  -1.888  -1.320  -3.569
  -1.542  -1.249  -3.569
  -1.212  -1.124  -3.569
  -0.907  -0.948  -3.569
  -0.634  -0.725  -3.569
  -3.014   2.586  -3.801
  -3.317   2.398  -3.801
  -3.580   2.158  -3.801
  -1.623  -1.003  -3.801
  -1.290  -0.874  -3.801
  -0.987  -0.686  -3.801
  -3.078   2.221  -4.002
  -3.349   1.990  -4.002
  -1.711  -0.733  -4.002
  -1.379  -0.601  -4.002
  -3.103   1.807  -4.170
  -1.804  -0.443  -4.170
  -1.479  -0.309  -4.170
  -2.936   1.514  -4.303
  -1.974  -0.152  -4.303
  -2.749   1.201  -4.399
  -2.152   0.166  -4.399
  -2.692   1.900   1.832
  -2.837   1.648   1.832
  -2.692   1.396   1.832
  -2.546   2.227   1.783
  -2.835   2.149   1.783
  -3.047   1.937   1.783
  -3.125   1.648   1.783
  -3.047   1.359   1.783
  -2.835   1.147   1.783
  -2.695   2.494   1.702
  -2.975   2.392   1.702
  -3.204   2.200   1.702
  -3.353   1.942   1.702
  -3.405   1.648   1.702
  -3.353   1.354   1.702
  -3.204   1.096   1.702
  -2.975   0.904   1.702
  -2.546   2.776   1.591
  -2.838   2.738   1.591
  -3.110   2.625   1.591
  -3.344   2.446   1.591
  -3.523   2.212   1.591
  -3.636   1.940   1.591
  -3.674   1.648   1.591
  -3.636   1.356   1.591
  -3.523   1.084   1.591
  -3.344   0.850   1.591
  -3.110   0.671   1.591
  -2.471   3.029   1.449
  -2.770   3.013   1.449
  -3.058   2.933   1.449
  -3.322   2.793   1.449
  -3.550   2.599   1.449
  -3.731   2.361   1.449
  -3.857   2.090   1.449
  -3.921   1.798   1.449
  -3.921   1.498   1.449
  -3.857   1.206   1.449
  -3.731   0.935   1.449
  -3.550   0.697   1.449
  -2.396   3.262   1.281
  -2.696   3.262   1.281
  -2.990   3.207   1.281
  -3.269   3.099   1.281
  -3.523   2.942   1.281
  -3.744   2.740   1.281
  -3.924   2.501   1.281
  -4.058   2.234   1.281
  -4.139   1.946   1.281
  -4.167   1.648   1.281
  -4.139   1.350   1.281
  -4.058   1.062   1.281
  -3.924   0.795   1.281
  -3.744   0.556   1.281
  -2.324   3.473   1.086
  -2.620   3.485   1.086
  -2.914   3.449   1.086
  -3.198   3.367   1.086
  -3.465   3.240   1.086
  -3.709   3.072   1.086
  -3.922   2.867   1.086
  -4.100   2.631   1.086
  -4.237   2.369   1.086
  -4.331   2.088   1.086
  -4.379   1.796   1.086
  -4.379   1.500   1.086
  -4.331   1.208   1.086
  -4.237   0.927   1.086
  -4.100   0.665   1.086
  -2.324   3.669   0.869
  -2.620   3.679   0.869
  -2.915   3.647   0.869
  -3.202   3.572   0.869
  -3.475   3.456   0.869
  -3.729   3.301   0.869
  -3.957   3.111   0.869
  -4.155   2.890   0.869
  -4.319   2.643   0.869
  -4.445   2.374   0.869
  -4.530   2.090   0.869
  -4.573   1.796   0.869
  -4.573   1.500   0.869
  -4.530   1.206   0.869
  -4.445   0.922   0.869
  -4.319   0.653   0.869
  -2.326   3.838   0.631
  -2.620   3.848   0.631
  -2.912   3.819   0.631
  -3.198   3.751   0.631
  -3.473   3.645   0.631
  -3.731   3.504   0.631
  -3.967   3.329   0.631
  -4.179   3.125   0.631
  -4.361   2.894   0.631
  -4.511   2.641   0.631
  -4.626   2.370   0.631
  -4.703   2.087   0.631
  -4.743   1.795   0.631
  -4.743   1.501   0.631
  -4.703   1.210   0.631
  -4.626   0.926   0.631
  -4.511   0.655   0.631
  -2.107   3.949   0.376
  -2.399   3.986   0.376
  -2.693   3.986   0.376
  -2.985   3.949   0.376
  -3.270   3.876   0.376
  -3.543   3.768   0.376
  -3.801   3.626   0.376
  -4.039   3.453   0.376
  -4.254   3.252   0.376
  -4.441   3.025   0.376
  -4.599   2.777   0.376
  -4.724   2.510   0.376
  -4.815   2.231   0.376
  -4.870   1.942   0.376
  -4.889   1.648   0.376
  -4.870   1.354   0.376
  -4.815   1.065   0.376
  -4.724   0.786   0.376
  -1.959   4.031   0.107
  -2.250   4.084   0.107
  -2.546   4.102   0.107
  -2.842   4.084   0.107
  -3.133   4.031   0.107
  -3.416   3.943   0.107
  -3.686   3.821   0.107
  -3.940   3.668   0.107
  -4.173   3.485   0.107
  -4.383   3.275   0.107
  -4.566   3.042   0.107
  -4.719   2.788   0.107
  -4.841   2.518   0.107
  -4.929   2.235   0.107
  -4.982   1.944   0.107
  -5.000   1.648   0.107
  -4.982   1.352   0.107
  -4.929   1.061   0.107
  -1.819   4.076  -0.173
  -2.106   4.144  -0.173
  -2.399   4.179  -0.173
  -2.693   4.179  -0.173
  -2.986   4.144  -0.173
  -3.273   4.076  -0.173
  -3.550   3.976  -0.173