 $system timlim=999888777
         mwords=100 $end
 $contrl exetyp=run
         runtyp=energy scftyp=rhf
         icharg=-1 mult=1 units=angs coord=unique
         maxit=50 ispher=1 qmttol=1d-6 icut=12 itol=22 $end
 $scf    dirscf=.t. diis=.t. soscf=.f.
         fdiff=.f. conv=1d-6
         npreo(1)=0,-1,1,9999 $end
 $elpot  iepot=1 where=points $end
 $basis  gbasis=n311 ngauss=6
         ndfunc=1 npfunc=1 diffsp=.t. diffs=.t. $end
 $DATA
TS1a_hfd_irc200_all_revmov.pdb
C1
P     15.0     0.00100   0.01800  -0.00800 
O      8.0     0.03500  -0.08200   1.62200 
O      8.0     1.23000   0.12100  -0.84800 
F      9.0    -0.04700  -1.64200   0.05400 
O      8.0    -1.50200  -0.12300  -0.62900 
C      6.0    -2.15200   0.85600  -1.37700 
H      1.0    -2.52300   1.66100  -0.75700 
H      1.0    -1.50700   1.27900  -2.14000 
H      1.0    -2.98700   0.36100  -1.86500 
C      6.0     0.48100   0.92400   2.47500 
H      1.0     0.63800   0.45500   3.44300 
H      1.0     1.42100   1.35100   2.14200 
H      1.0    -0.24200   1.72200   2.57400 
O      8.0    -0.22200   1.74200   0.11400 
H      1.0     0.49400   2.11100  -0.38100 
 $END
 $POINTS
ANGS 3034
  -2.639   0.935   1.748
   2.606  -1.414   1.424
   2.765  -1.077   1.424
   2.759  -1.430   1.082
   2.913  -1.087   1.082
  -0.370  -1.365  -2.981
   0.001  -1.414  -2.981
  -0.188  -1.055  -3.123
   0.001  -0.716  -3.225
  -1.638  -1.140   3.602
  -1.447  -1.395   3.602
  -1.217  -1.616   3.602
  -0.955  -1.797   3.602
  -0.667  -1.933   3.602
  -0.361  -2.022   3.602
  -0.045  -2.060   3.602
  -2.102  -0.558   3.368
  -2.010  -0.864   3.368
  -1.874  -1.153   3.368
  -1.698  -1.420   3.368
  -1.484  -1.658   3.368
  -1.239  -1.862   3.368
  -0.966  -2.029   3.368
  -0.672  -2.154   3.368
  -0.363  -2.235   3.368
  -0.045  -2.270   3.368
   0.274  -2.258   3.368
   0.589  -2.200   3.368
  -2.331  -0.240   3.112
  -2.288  -0.554   3.112
  -2.205  -0.860   3.112
  -2.081  -1.151   3.112
  -1.920  -1.424   3.112
  -1.723  -1.672   3.112
  -1.496  -1.892   3.112
  -1.241  -2.080   3.112
  -0.963  -2.233   3.112
  -0.667  -2.346   3.112
  -0.359  -2.420   3.112
  -0.044  -2.452   3.112
   0.272  -2.441   3.112
   0.585  -2.388   3.112
   0.887  -2.294   3.112
   1.174  -2.161   3.112
  -2.488  -0.082   2.837
  -2.468  -0.398   2.837
  -2.408  -0.709   2.837
  -2.311  -1.011   2.837
  -2.176  -1.297   2.837
  -2.006  -1.565   2.837
  -1.804  -1.809   2.837
  -1.573  -2.026   2.837
  -1.317  -2.212   2.837
  -1.039  -2.365   2.837
  -0.745  -2.481   2.837
  -0.438  -2.560   2.837
  -0.123  -2.600   2.837
   0.193  -2.600   2.837
   0.508  -2.560   2.837
   0.815  -2.481   2.837
   1.109  -2.365   2.837
   1.387  -2.212   2.837
   1.643  -2.026   2.837
  -2.589   0.237   2.547
  -2.608  -0.082   2.547
  -2.589  -0.401   2.547
  -2.531  -0.714   2.547
  -2.436  -1.019   2.547
  -2.305  -1.310   2.547
  -2.140  -1.583   2.547
  -1.943  -1.835   2.547
  -1.718  -2.060   2.547
  -1.466  -2.257   2.547
   1.263  -2.422   2.547
   1.536  -2.257   2.547
   1.788  -2.060   2.547
   2.013  -1.835   2.547
  -2.621   0.548   2.245
  -2.676   0.235   2.245
  -2.695  -0.082   2.245
  -2.676  -0.399   2.245
  -2.621  -0.712   2.245
  -2.530  -1.016   2.245
  -2.404  -1.307   2.245
  -2.246  -1.582   2.245
  -2.056  -1.837   2.245
   1.908  -2.068   2.245
   2.126  -1.837   2.245
   2.316  -1.582   2.245
  -2.635   0.702   1.936
  -2.707   0.392   1.936
  -2.743   0.077   1.936
  -2.743  -0.241   1.936
  -2.707  -0.556   1.936
  -2.635  -0.866   1.936
  -2.528  -1.165   1.936
  -2.388  -1.450   1.936
  -2.216  -1.717   1.936
   2.189  -1.843   1.936
   2.376  -1.586   1.936
   2.406  -1.572   1.622
   2.558  -1.297   1.622
   3.108  -0.506   1.132
   3.419   0.121   0.898
   3.056  -1.087   0.898
   3.212  -0.808   0.898
   3.326  -0.510   0.898
   3.396  -0.198   0.898
   3.601   0.121   0.642
   3.580   0.437   0.642
   3.517   0.747   0.642
   2.878  -1.583   0.642
   3.091  -1.348   0.642
   3.270  -1.087   0.642
   3.413  -0.805   0.642
   3.517  -0.505   0.642
   3.580  -0.195   0.642
   3.753   0.121   0.367
   3.733   0.437   0.367
   3.673   0.748   0.367
   3.576   1.050   0.367
   3.441   1.336   0.367
   2.838  -1.823   0.367
   3.069  -1.606   0.367
   3.271  -1.362   0.367
   3.441  -1.094   0.367
   3.576  -0.808   0.367
   3.673  -0.506   0.367
   3.733  -0.195   0.367
   3.873   0.121   0.077
   3.854   0.440   0.077
   3.796   0.753   0.077
   3.701   1.058   0.077
   3.570   1.349   0.077
   3.405   1.622   0.077
   3.208   1.874   0.077
   2.983  -1.857   0.077
   3.208  -1.632   0.077
   3.405  -1.380   0.077
   3.570  -1.107   0.077
   3.701  -0.816   0.077
   3.796  -0.511   0.077
   3.854  -0.198   0.077
   3.960   0.121  -0.225
   3.941   0.438  -0.225
   3.886   0.751  -0.225
   3.795   1.055  -0.225
   3.669   1.346  -0.225
   3.511   1.621  -0.225
   3.321   1.876  -0.225
   3.103   2.107  -0.225
   2.860  -2.069  -0.225
   3.103  -1.865  -0.225
   3.321  -1.634  -0.225
   3.511  -1.379  -0.225
   3.669  -1.104  -0.225
   3.795  -0.813  -0.225
   3.886  -0.509  -0.225
   3.941  -0.196  -0.225
   4.012   0.121  -0.534
   3.994   0.438  -0.534
   3.940   0.751  -0.534
   3.851   1.056  -0.534
   3.727   1.349  -0.534
   3.571   1.625  -0.534
   3.384   1.882  -0.534
   3.169   2.116  -0.534
   2.929  -2.082  -0.534
   3.169  -1.874  -0.534
   3.384  -1.640  -0.534
   3.571  -1.383  -0.534
   3.727  -1.107  -0.534
   3.851  -0.814  -0.534
   3.940  -0.509  -0.534
   3.994  -0.196  -0.534
   4.030   0.121  -0.848
   4.012   0.435  -0.848
   3.960   0.744  -0.848
   3.873   1.046  -0.848
   3.753   1.336  -0.848
   3.601   1.611  -0.848
   3.419   1.867  -0.848
   3.210   2.101  -0.848
   2.720  -2.250  -0.848
   2.976  -2.068  -0.848
   3.210  -1.859  -0.848
   3.419  -1.625  -0.848
   3.601  -1.369  -0.848
   3.753  -1.094  -0.848
   3.873  -0.804  -0.848
   3.960  -0.502  -0.848
   4.012  -0.193  -0.848
   4.012   0.121  -1.161
   3.994   0.438  -1.161
   3.940   0.751  -1.161
   3.851   1.056  -1.161
   3.727   1.349  -1.161
   3.571   1.625  -1.161
   3.384   1.882  -1.161
   3.169   2.116  -1.161
   2.667  -2.262  -1.161
   2.929  -2.082  -1.161
   3.169  -1.874  -1.161
   3.384  -1.640  -1.161
   3.571  -1.383  -1.161
   3.727  -1.107  -1.161
   3.851  -0.814  -1.161
   3.940  -0.509  -1.161
   3.994  -0.196  -1.161
   3.960   0.121  -1.471
   3.941   0.438  -1.471
   3.886   0.751  -1.471
   3.795   1.055  -1.471
   3.669   1.346  -1.471
   3.511   1.621  -1.471
   3.321   1.876  -1.471
   3.103   2.107  -1.471
   2.860   2.311  -1.471
   2.311  -2.386  -1.471
   2.595  -2.243  -1.471
   2.860  -2.069  -1.471
   3.103  -1.865  -1.471
   3.321  -1.634  -1.471
   3.511  -1.379  -1.471
   3.669  -1.104  -1.471
   3.795  -0.813  -1.471
   3.886  -0.509  -1.471
   3.941  -0.196  -1.471
   3.873   0.121  -1.773
   3.854   0.440  -1.773
   3.796   0.753  -1.773
   3.701   1.058  -1.773
   3.570   1.349  -1.773
   3.405   1.622  -1.773
   3.208   1.874  -1.773
   2.983   2.099  -1.773
   2.731   2.296  -1.773
   2.167  -2.350  -1.773
   2.458  -2.219  -1.773
   2.731  -2.054  -1.773
   2.983  -1.857  -1.773
   3.208  -1.632  -1.773
   3.405  -1.380  -1.773
   3.570  -1.107  -1.773
   3.701  -0.816  -1.773
   3.796  -0.511  -1.773
   3.854  -0.198  -1.773
   3.753   0.121  -2.063
   3.733   0.437  -2.063
   3.673   0.748  -2.063
   3.576   1.050  -2.063
   3.441   1.336  -2.063
   3.271   1.604  -2.063
   3.069   1.848  -2.063
   2.838   2.065  -2.063
   2.582   2.251  -2.063
   2.010  -2.278  -2.063
   2.304  -2.162  -2.063
   2.582  -2.009  -2.063
   2.838  -1.823  -2.063
   3.069  -1.606  -2.063
   3.271  -1.362  -2.063
   3.441  -1.094  -2.063
   3.576  -0.808  -2.063
   3.673  -0.506  -2.063
   3.733  -0.195  -2.063
   3.601   0.121  -2.338
   3.580   0.437  -2.338
   3.517   0.747  -2.338
   3.413   1.047  -2.338
   3.270   1.329  -2.338
   3.091   1.590  -2.338
   2.878   1.825  -2.338
   2.636   2.030  -2.338
   2.369   2.200  -2.338
   1.467  -2.238  -2.338
   1.780  -2.185  -2.338
   2.082  -2.091  -2.338
   2.369  -1.958  -2.338
   2.636  -1.788  -2.338
   2.878  -1.583  -2.338
   3.091  -1.348  -2.338
   3.270  -1.087  -2.338
   3.413  -0.805  -2.338
   3.517  -0.505  -2.338
   3.580  -0.195  -2.338
   3.419   0.121  -2.594
   3.396   0.440  -2.594
   3.326   0.752  -2.594
   3.212   1.050  -2.594
   3.056   1.329  -2.594
   2.860   1.582  -2.594
   2.630   1.804  -2.594
   2.370   1.990  -2.594
   2.086   2.136  -2.594
   1.150  -2.067  -2.594
   1.469  -2.055  -2.594
   1.784  -1.997  -2.594
   2.086  -1.894  -2.594
   2.370  -1.748  -2.594
   2.630  -1.562  -2.594
   2.860  -1.340  -2.594
   3.056  -1.087  -2.594
   3.212  -0.808  -2.594
   3.326  -0.510  -2.594
   3.396  -0.198  -2.594
   3.210   0.121  -2.828
   3.184   0.439  -2.828
   3.108   0.748  -2.828
   2.983   1.041  -2.828
   2.813   1.310  -2.828
   2.602   1.549  -2.828
   2.355   1.750  -2.828
   2.079   1.910  -2.828
   1.781   2.023  -2.828
   1.469   2.086  -2.828
   0.528  -1.730  -2.828
   0.834  -1.819  -2.828
   1.150  -1.857  -2.828
   1.469  -1.844  -2.828
   1.781  -1.781  -2.828
   2.079  -1.668  -2.828
   2.355  -1.508  -2.828
   2.602  -1.307  -2.828
   2.813  -1.068  -2.828
   2.983  -0.799  -2.828
   3.108  -0.506  -2.828
   3.184  -0.197  -2.828
   2.976   0.121  -3.037
   2.946   0.442  -3.037
   2.858   0.752  -3.037
   2.714   1.040  -3.037
   2.520   1.297  -3.037
   2.282   1.514  -3.037
   2.008   1.684  -3.037
   1.708   1.800  -3.037
   1.391   1.859  -3.037
   1.069   1.859  -3.037
   0.452  -1.442  -3.037
   0.752  -1.558  -3.037
   1.069  -1.617  -3.037
   1.391  -1.617  -3.037
   1.708  -1.558  -3.037
   2.008  -1.442  -3.037
   2.282  -1.272  -3.037
   2.520  -1.055  -3.037
   2.714  -0.798  -3.037
   2.858  -0.510  -3.037
   2.946  -0.200  -3.037
   2.720   0.121  -3.219
   2.685   0.441  -3.219
   2.582   0.747  -3.219
   2.416   1.023  -3.219
   2.194   1.256  -3.219
   1.928   1.437  -3.219
   1.629   1.556  -3.219
   1.311   1.609  -3.219
   0.989   1.591  -3.219
   0.148  -0.903  -3.219
   0.394  -1.112  -3.219
   0.679  -1.263  -3.219
   0.989  -1.349  -3.219
   1.311  -1.367  -3.219
   1.629  -1.314  -3.219
   1.928  -1.195  -3.219
   2.194  -1.014  -3.219
   2.416  -0.781  -3.219
   2.582  -0.505  -3.219
   2.685  -0.199  -3.219
   2.445   0.121  -3.371
   2.403   0.435  -3.371
   2.282   0.728  -3.371
   2.089   0.980  -3.371
   1.837   1.173  -3.371
   1.544   1.294  -3.371
   1.230   1.336  -3.371
   0.916   1.294  -3.371
   0.178  -0.486  -3.371
   0.371  -0.738  -3.371
   0.623  -0.931  -3.371
   0.916  -1.052  -3.371
   1.230  -1.094  -3.371
   1.544  -1.052  -3.371
   1.837  -0.931  -3.371
   2.089  -0.738  -3.371
   2.282  -0.486  -3.371
   2.403  -0.193  -3.371
   2.155   0.121  -3.491
   2.099   0.437  -3.491
   1.938   0.715  -3.491
   1.692   0.922  -3.491
   1.391   1.032  -3.491
   1.069   1.032  -3.491
   0.768   0.922  -3.491
   0.361  -0.195  -3.491
   0.522  -0.473  -3.491
   0.768  -0.680  -3.491
   1.069  -0.790  -3.491
   1.391  -0.790  -3.491
   1.692  -0.680  -3.491
   1.938  -0.473  -3.491
   2.099  -0.195  -3.491
   1.853   0.121  -3.578
   1.770   0.433  -3.578
   1.542   0.661  -3.578
   1.230   0.744  -3.578
   0.918   0.661  -3.578
   0.690   0.433  -3.578
   0.607   0.121  -3.578
   0.690  -0.191  -3.578
   0.918  -0.419  -3.578
   1.230  -0.502  -3.578
   1.542  -0.419  -3.578
   1.770  -0.191  -3.578
   1.544   0.121  -3.630
   1.387   0.393  -3.630
   1.073   0.393  -3.630
   0.916   0.121  -3.630
   1.073  -0.151  -3.630
   1.387  -0.151  -3.630
   1.230   0.121  -3.648
  -0.928  -2.523   2.640
  -0.670  -2.720   2.640
  -0.369  -2.845   2.640
  -0.047  -2.887   2.640
   0.275  -2.845   2.640
   0.576  -2.720   2.640
  -1.355  -2.429   2.484
  -1.156  -2.692   2.484
  -0.904  -2.906   2.484
  -0.612  -3.060   2.484
  -0.294  -3.149   2.484
   0.036  -3.167   2.484
   0.361  -3.113   2.484
   0.668  -2.991   2.484
   0.942  -2.806   2.484
   1.169  -2.566   2.484
  -1.716  -2.288   2.298
  -1.568  -2.584   2.298
  -1.369  -2.848   2.298
  -1.125  -3.070   2.298
  -0.845  -3.244   2.298
  -0.537  -3.363   2.298
  -0.212  -3.424   2.298
   0.118  -3.424   2.298
   0.443  -3.363   2.298
   0.751  -3.244   2.298
   1.031  -3.070   2.298
   1.275  -2.848   2.298
   1.474  -2.584   2.298
   1.622  -2.288   2.298
  -2.017  -2.128   2.083
  -1.914  -2.437   2.083
  -1.762  -2.727   2.083
  -1.566  -2.988   2.083
  -1.330  -3.214   2.083
  -1.062  -3.400   2.083
  -0.767  -3.540   2.083
  -0.453  -3.630   2.083
  -0.129  -3.670   2.083
   0.198  -3.657   2.083
   0.518  -3.591   2.083
   0.823  -3.475   2.083
   1.106  -3.312   2.083
   1.359  -3.106   2.083
   1.575  -2.861   2.083
   1.750  -2.585   2.083
   1.878  -2.285   2.083
  -2.285  -1.806   1.843
  -2.237  -2.130   1.843
  -2.143  -2.444   1.843
  -2.004  -2.740   1.843
  -1.823  -3.013   1.843
  -1.604  -3.257   1.843
  -1.353  -3.467   1.843
  -1.073  -3.638   1.843
  -0.772  -3.766   1.843
  -0.455  -3.849   1.843
  -0.129  -3.884   1.843
   0.198  -3.872   1.843
   0.521  -3.813   1.843
   0.831  -3.707   1.843
   1.122  -3.557   1.843
   1.388  -3.367   1.843
   1.624  -3.139   1.843
   1.824  -2.880   1.843
   1.985  -2.594   1.843
   2.102  -2.288   1.843
   2.173  -1.969   1.843
   2.383  -1.642   1.581
  -2.472  -1.804   1.581
  -2.428  -2.126   1.581
  -2.343  -2.439   1.581
  -2.216  -2.738   1.581
  -2.050  -3.017   1.581
  -1.849  -3.272   1.581
  -1.616  -3.498   1.581
  -1.355  -3.690   1.581
  -1.070  -3.846   1.581
  -0.767  -3.963   1.581
  -0.451  -4.038   1.581
  -0.128  -4.071   1.581
   0.196  -4.060   1.581
   0.516  -4.006   1.581
   0.826  -3.910   1.581
   1.121  -3.773   1.581
   1.394  -3.598   1.581
   1.642  -3.389   1.581
   1.860  -3.148   1.581
   2.044  -2.880   1.581
   2.190  -2.591   1.581
   2.297  -2.284   1.581
   2.361  -1.966   1.581
   2.539  -1.642   1.299
  -2.612  -1.966   1.299
  -2.552  -2.285   1.299
  -2.451  -2.594   1.299
  -2.313  -2.888   1.299
  -2.139  -3.162   1.299
  -1.932  -3.412   1.299
  -1.695  -3.634   1.299
  -1.433  -3.825   1.299
  -1.148  -3.982   1.299
  -0.846  -4.101   1.299
  -0.532  -4.182   1.299
  -0.209  -4.223   1.299
   0.115  -4.223   1.299
   0.438  -4.182   1.299
   0.752  -4.101   1.299
   1.054  -3.982   1.299
   1.339  -3.825   1.299
   1.601  -3.634   1.299
   1.838  -3.412   1.299
   2.045  -3.162   1.299
   2.219  -2.888   1.299
   2.357  -2.594   1.299
   2.458  -2.285   1.299
   2.518  -1.966   1.299
  -2.677  -2.290   1.002
  -2.580  -2.603   1.002
  -2.446  -2.901   1.002
  -2.276  -3.181   1.002
  -2.075  -3.438   1.002
  -1.843  -3.670   1.002
  -1.586  -3.871   1.002
  -1.306  -4.041   1.002
  -1.008  -4.175   1.002
  -0.695  -4.272   1.002
  -0.374  -4.331   1.002
  -0.047  -4.351   1.002
   0.280  -4.331   1.002
   0.601  -4.272   1.002
   0.914  -4.175   1.002
   1.212  -4.041   1.002
   1.492  -3.871   1.002
   1.749  -3.670   1.002
   1.981  -3.438   1.002
   2.182  -3.181   1.002
   2.352  -2.901   1.002
   2.486  -2.603   1.002
   2.583  -2.290   1.002
   2.642  -1.969   1.002
  -2.770  -2.287   0.693
  -2.676  -2.599   0.693
  -2.547  -2.898   0.693
  -2.385  -3.180   0.693
  -2.190  -3.441   0.693
  -1.967  -3.677   0.693
  -1.718  -3.886   0.693
  -1.446  -4.065   0.693
  -1.155  -4.211   0.693
  -0.849  -4.322   0.693
  -0.533  -4.398   0.693
  -0.210  -4.435   0.693
   0.116  -4.435   0.693
   0.439  -4.398   0.693
   0.755  -4.322   0.693
   1.061  -4.211   0.693
   1.352  -4.065   0.693
   1.624  -3.886   0.693
   1.873  -3.677   0.693
   2.096  -3.441   0.693
   2.291  -3.180   0.693
   2.453  -2.898   0.693
   2.582  -2.599   0.693
   2.676  -2.287   0.693
   2.732  -1.967   0.693
  -2.783  -2.445   0.375
  -2.674  -2.752   0.375
  -2.530  -3.044   0.375
  -2.354  -3.318   0.375
  -2.148  -3.570   0.375
  -1.915  -3.797   0.375
  -1.657  -3.996   0.375
  -1.378  -4.164   0.375
  -1.082  -4.300   0.375
  -0.772  -4.400   0.375
  -0.453  -4.465   0.375
  -0.128  -4.493   0.375
   0.197  -4.483   0.375
   0.519  -4.437   0.375
   0.834  -4.354   0.375
   1.138  -4.236   0.375
   1.426  -4.084   0.375
   1.695  -3.900   0.375
   1.941  -3.687   0.375
   2.161  -3.447   0.375
   2.352  -3.184   0.375
   2.512  -2.900   0.375
   2.639  -2.600   0.375
   2.731  -2.288   0.375
   2.786  -1.967   0.375
  -2.756  -2.590   0.054
  -2.633  -2.887   0.054
  -2.477  -3.169   0.054
  -2.291  -3.431   0.054
  -2.076  -3.671   0.054
  -1.836  -3.886   0.054
  -1.574  -4.072   0.054
  -1.292  -4.228   0.054
  -0.995  -4.351   0.054
  -0.686  -4.440   0.054
  -0.368  -4.494   0.054
  -0.047  -4.512   0.054
   0.274  -4.494   0.054
   0.592  -4.440   0.054
   0.901  -4.351   0.054
   1.198  -4.228   0.054
   1.480  -4.072   0.054
   1.742  -3.886   0.054
   1.982  -3.671   0.054
   2.197  -3.431   0.054
   2.383  -3.169   0.054
   2.539  -2.887   0.054
   2.662  -2.590   0.054
   2.751  -2.281   0.054
  -2.674  -2.752  -0.267
  -2.530  -3.044  -0.267
  -2.354  -3.318  -0.267
  -2.148  -3.570  -0.267
  -1.915  -3.797  -0.267
  -1.657  -3.996  -0.267
  -1.378  -4.164  -0.267
  -1.082  -4.300  -0.267
  -0.772  -4.400  -0.267
  -0.453  -4.465  -0.267
  -0.128  -4.493  -0.267
   0.197  -4.483  -0.267
   0.519  -4.437  -0.267
   0.834  -4.354  -0.267
   1.138  -4.236  -0.267
   1.426  -4.084  -0.267
   1.695  -3.900  -0.267
   1.941  -3.687  -0.267
   2.161  -3.447  -0.267
   2.352  -3.184  -0.267
   2.512  -2.900  -0.267
   2.639  -2.600  -0.267
   2.731  -2.288  -0.267
  -2.547  -2.898  -0.585
  -2.385  -3.180  -0.585
  -2.190  -3.441  -0.585
  -1.967  -3.677  -0.585
  -1.718  -3.886  -0.585
  -1.446  -4.065  -0.585
  -1.155  -4.211  -0.585
  -0.849  -4.322  -0.585
  -0.533  -4.398  -0.585
  -0.210  -4.435  -0.585
   0.116  -4.435  -0.585
   0.439  -4.398  -0.585
   0.755  -4.323  -0.585
   1.061  -4.211  -0.585
   1.352  -4.065  -0.585
   1.624  -3.886  -0.585
   1.873  -3.677  -0.585
   2.096  -3.441  -0.585
   2.291  -3.180  -0.585
   2.453  -2.898  -0.585
   2.582  -2.599  -0.585
   2.676  -2.287  -0.585
  -2.446  -2.901  -0.894
  -2.276  -3.181  -0.894
  -2.075  -3.438  -0.894
  -1.843  -3.670  -0.894
  -1.586  -3.871  -0.894
  -1.306  -4.041  -0.894
  -1.008  -4.175  -0.894
  -0.695  -4.272  -0.894
  -0.374  -4.331  -0.894
  -0.047  -4.351  -0.894
   0.280  -4.331  -0.894
   0.601  -4.272  -0.894
   0.914  -4.175  -0.894
   1.212  -4.041  -0.894
   1.492  -3.871  -0.894
   1.749  -3.670  -0.894
   1.981  -3.438  -0.894
   2.182  -3.181  -0.894
   2.352  -2.901  -0.894
   2.486  -2.603  -0.894
  -2.313  -2.888  -1.191
  -2.139  -3.162  -1.191
  -1.932  -3.412  -1.191
  -1.695  -3.634  -1.191
  -1.433  -3.825  -1.191
  -1.148  -3.982  -1.191
  -0.846  -4.101  -1.191
  -0.532  -4.182  -1.191
  -0.209  -4.223  -1.191
   0.115  -4.223  -1.191
   0.438  -4.182  -1.191
   0.752  -4.101  -1.191
   1.054  -3.982  -1.191
   1.339  -3.825  -1.191
   1.601  -3.634  -1.191
   1.838  -3.412  -1.191
   2.045  -3.162  -1.191
   2.219  -2.888  -1.191
   2.357  -2.594  -1.191
  -2.216  -2.738  -1.473
  -2.050  -3.017  -1.473
  -1.849  -3.272  -1.473
  -1.616  -3.498  -1.473
  -1.355  -3.690  -1.473
  -1.070  -3.846  -1.473
  -0.767  -3.963  -1.473
  -0.451  -4.038  -1.473
  -0.128  -4.071  -1.473
   0.196  -4.060  -1.473
   0.516  -4.006  -1.473
   0.826  -3.910  -1.473
   1.121  -3.773  -1.473
   1.394  -3.598  -1.473
   1.642  -3.389  -1.473
   1.860  -3.148  -1.473
   2.044  -2.880  -1.473
   2.190  -2.591  -1.473
  -2.004  -2.740  -1.735
  -1.823  -3.013  -1.735
  -1.604  -3.257  -1.735
  -1.353  -3.467  -1.735
  -1.073  -3.638  -1.735
  -0.772  -3.766  -1.735
  -0.455  -3.849  -1.735
  -0.129  -3.884  -1.735
   0.198  -3.872  -1.735
   0.521  -3.813  -1.735
   0.831  -3.707  -1.735
   1.122  -3.557  -1.735
   1.388  -3.367  -1.735
   1.624  -3.139  -1.735
   1.824  -2.880  -1.735
   1.985  -2.594  -1.735
  -1.762  -2.727  -1.975
  -1.566  -2.988  -1.975
  -1.330  -3.214  -1.975
  -1.062  -3.400  -1.975
  -0.767  -3.540  -1.975
  -0.453  -3.630  -1.975
  -0.129  -3.670  -1.975
   0.198  -3.657  -1.975
   0.518  -3.591  -1.975
   0.823  -3.475  -1.975
   1.106  -3.312  -1.975
   1.359  -3.106  -1.975
   1.575  -2.861  -1.975
   1.750  -2.585  -1.975
  -1.568  -2.584  -2.190
  -1.369  -2.848  -2.190
  -1.125  -3.070  -2.190
  -0.845  -3.244  -2.190
  -0.537  -3.363  -2.190
  -0.212  -3.424  -2.190
   0.118  -3.424  -2.190
   0.443  -3.363  -2.190
   0.751  -3.244  -2.190
   1.031  -3.070  -2.190
   1.275  -2.848  -2.190
   1.474  -2.584  -2.190
  -1.355  -2.429  -2.376
  -1.156  -2.692  -2.376
  -0.904  -2.906  -2.376
  -0.612  -3.060  -2.376
  -0.294  -3.149  -2.376
   0.036  -3.167  -2.376
   0.361  -3.113  -2.376
   0.668  -2.991  -2.376
   0.942  -2.806  -2.376
   1.169  -2.566  -2.376
   1.339  -2.283  -2.376
  -1.125  -2.265  -2.532
  -0.928  -2.523  -2.532
  -0.670  -2.720  -2.532
  -0.369  -2.845  -2.532
  -0.047  -2.887  -2.532
   0.275  -2.845  -2.532
   0.576  -2.720  -2.532
   0.834  -2.523  -2.532
   1.031  -2.265  -2.532
  -0.773  -2.251  -2.655
  -0.521  -2.463  -2.655
  -0.212  -2.576  -2.655
   0.118  -2.576  -2.655
   0.427  -2.463  -2.655
   0.679  -2.251  -2.655
  -0.600  -1.961  -2.744
  -0.366  -2.195  -2.744
  -0.047  -2.281  -2.744
   0.272  -2.195  -2.744
   0.506  -1.961  -2.744
  -0.208  -1.920  -2.798
   0.114  -1.920  -2.798
  -2.778   0.645   1.742
  -2.914   0.353   1.742
  -2.983   0.038   1.742
  -2.983  -0.284   1.742
  -2.914  -0.599   1.742
  -2.778  -0.891   1.742
  -2.584  -1.147   1.742
  -3.130   0.508   1.560
  -3.218   0.198   1.560
  -3.248  -0.123   1.560
  -3.218  -0.444   1.560
  -3.130  -0.754   1.560
  -2.986  -1.042   1.560
  -2.792  -1.299   1.560
  -2.554  -1.516   1.560
  -3.475   0.036   1.351
  -3.475  -0.282   1.351
  -3.424  -0.597   1.351
  -3.323  -0.899   1.351
  -3.175  -1.181   1.351
  -2.984  -1.436   1.351
  -2.754  -1.657   1.351
  -3.685  -0.283   1.117
  -3.639  -0.599   1.117
  -3.547  -0.905   1.117
  -3.411  -1.194   1.117
  -3.235  -1.461   1.117
  -3.021  -1.699   1.117
  -2.776  -1.903   1.117
  -3.825  -0.595   0.861
  -3.742  -0.901   0.861
  -3.618  -1.192   0.861
  -3.457  -1.465   0.861
  -3.260  -1.713   0.861
  -3.033  -1.933   0.861
  -2.778  -2.121   0.861
  -3.945  -0.750   0.586
  -3.848  -1.052   0.586
  -3.713  -1.338   0.586
  -3.543  -1.606   0.586
  -3.341  -1.850   0.586
  -3.110  -2.067   0.586
  -2.854  -2.253   0.586
  -3.973  -1.060   0.296
  -3.842  -1.351   0.296
  -3.677  -1.624   0.296
  -3.480  -1.876   0.296
  -3.255  -2.101   0.296
  -3.003  -2.298   0.296
  -3.941  -1.348  -0.006
  -3.783  -1.623  -0.006
  -3.593  -1.878  -0.006
  -3.375  -2.109  -0.006
  -3.132  -2.313  -0.006
  -2.867  -2.487  -0.006
  -3.753  -1.758  -0.315
  -3.552  -2.004  -0.315
  -3.324  -2.226  -0.315
  -3.073  -2.420  -0.315
  -2.800  -2.584  -0.315
  -3.691  -1.869  -0.629
  -3.482  -2.103  -0.629
  -3.248  -2.312  -0.629
  -2.992  -2.494  -0.629
  -2.717  -2.646  -0.629
  -3.552  -2.004  -0.942
  -3.324  -2.226  -0.942
  -3.073  -2.420  -0.942
  -2.800  -2.584  -0.942
  -3.132  -2.313  -1.252
  -2.867  -2.487  -1.252
  -2.583  -2.630  -1.252
  -3.003  -2.298  -1.554
  -2.730  -2.463  -1.554
  -2.439  -2.594  -1.554
  -2.854  -2.253  -1.844
  -2.576  -2.406  -1.844
  -2.282  -2.522  -1.844
  -1.975  -2.601  -1.844
  -2.500  -2.274  -2.119
  -2.204  -2.387  -2.119
  -1.896  -2.461  -2.119
  -2.209  -2.195  -2.375
  -1.900  -2.276  -2.375
  -1.582  -2.311  -2.375
  -1.898  -2.063  -2.609
  -1.582  -2.101  -2.609
  -1.263  -2.088  -2.609
  -1.663  -1.861  -2.818
  -1.341  -1.861  -2.818
  -1.024  -1.802  -2.818
  -0.724  -1.686  -2.818
  -0.804  -1.439  -3.000
  -3.451   0.508   1.416
  -3.715   0.329   1.248
  -4.052   0.501   1.047
  -3.954   0.158   1.047
  -3.795  -0.161   1.047
  -4.280   0.331   0.815
  -4.169  -0.003   0.815
  -4.005  -0.316   0.815
  -4.569   0.679   0.556
  -4.518   0.329   0.556
  -4.416  -0.010   0.556
  -4.266  -0.330   0.556
  -4.070  -0.625   0.556
  -4.771   0.681   0.272
  -4.724   0.333   0.272
  -4.632  -0.005   0.272
  -4.495  -0.328   0.272
  -4.316  -0.630   0.272
  -4.099  -0.905   0.272
  -4.945   0.856  -0.032
  -4.923   0.506  -0.032
  -4.857   0.161  -0.032
  -4.188  -1.056  -0.032
  -5.057   1.209  -0.353
  -5.078   0.856  -0.353
  -5.154   1.207  -0.687
  -5.078   1.880  -1.377
  -1.540   3.875  -1.724
  -4.834   2.371  -1.724
  -4.990   2.055  -1.724
  -1.976   3.873  -2.067
  -4.467   2.799  -2.067
  -4.677   2.517  -2.067
  -4.853   2.212  -2.067
  -2.505   3.761  -2.401
  -2.852   3.697  -2.401
  -3.190   3.592  -2.401
  -3.512   3.447  -2.401
  -3.814   3.264  -2.401
  -4.092   3.046  -2.401
  -4.342   2.796  -2.401
  -4.560   2.518  -2.401
  -4.743   2.216  -2.401
  -2.675   3.600  -2.722
  -3.015   3.512  -2.722
  -3.341   3.383  -2.722
  -3.649   3.214  -2.722
  -3.932   3.008  -2.722
  -4.188   2.768  -2.722
  -4.412   2.498  -2.722
  -1.977  -1.931  -2.722
  -2.930   3.363  -3.026
  -3.257   3.237  -3.026
  -3.564   3.068  -3.026
  -3.847   2.860  -3.026
  -4.099   2.617  -3.026
  -4.316   2.342  -3.026
  -1.889  -1.756  -3.026
  -1.544  -1.697  -3.026
  -1.209  -1.593  -3.026
  -0.891  -1.446  -3.026
  -0.595  -1.257  -3.026
  -2.935   3.150  -3.310
  -3.260   3.011  -3.310
  -3.562   2.827  -3.310
  -3.834   2.601  -3.310
  -4.070   2.337  -3.310
  -1.887  -1.553  -3.310
  -1.539  -1.489  -3.310
  -1.204  -1.375  -3.310
  -0.889  -1.213  -3.310
  -0.602  -1.007  -3.310
  -0.347  -0.761  -3.310
  -3.248   2.754  -3.569
  -3.538   2.554  -3.569
  -3.793   2.310  -3.569
  -1.888  -1.320  -3.569
  -1.542  -1.249  -3.569
  -1.212  -1.124  -3.569
  -0.907  -0.948  -3.569
  -0.634  -0.725  -3.569
  -3.317   2.398  -3.801
  -3.580   2.158  -3.801
  -1.974  -1.069  -3.801
  -1.623  -1.003  -3.801
  -1.290  -0.874  -3.801
  -0.987  -0.686  -3.801
  -3.078   2.221  -4.002
  -3.349   1.990  -4.002
  -1.711  -0.733  -4.002
  -1.379  -0.601  -4.002
  -3.103   1.807  -4.170
  -3.317   1.529  -4.170
  -1.804  -0.443  -4.170
  -2.936   1.514  -4.303
  -1.974  -0.152  -4.303
  -2.814   1.661   1.827
  -2.812   2.162   1.778
  -3.024   1.950   1.778
  -3.102   1.661   1.778
  -3.024   1.372   1.778
  -2.812   1.160   1.778
  -2.672   2.507   1.697
  -2.952   2.405   1.697
  -3.181   2.213   1.697
  -3.330   1.955   1.697
  -3.382   1.661   1.697
  -3.330   1.367   1.697
  -3.181   1.109   1.697
  -2.952   0.917   1.697
  -2.523   2.789   1.586
  -2.815   2.751   1.586
  -3.087   2.638   1.586
  -3.321   2.459   1.586
  -3.500   2.225   1.586
  -3.613   1.953   1.586
  -3.651   1.661   1.586
  -3.613   1.369   1.586
  -3.500   1.097   1.586
  -3.321   0.863   1.586
  -3.087   0.684   1.586
  -2.448   3.042   1.444
  -2.747   3.026   1.444
  -3.035   2.946   1.444
  -3.299   2.806   1.444
  -3.527   2.612   1.444
  -3.708   2.374   1.444
  -3.834   2.103   1.444
  -3.898   1.811   1.444
  -3.898   1.511   1.444
  -3.834   1.219   1.444
  -3.708   0.948   1.444
  -3.527   0.710   1.444
  -2.373   3.275   1.276
  -2.673   3.275   1.276
  -2.967   3.220   1.276
  -3.246   3.112   1.276
  -3.500   2.955   1.276
  -3.721   2.753   1.276
  -3.901   2.514   1.276
  -4.035   2.247   1.276
  -4.116   1.959   1.276
  -4.144   1.661   1.276
  -4.116   1.363   1.276
  -4.035   1.075   1.276
  -3.901   0.808   1.276
  -2.301   3.486   1.081
  -2.597   3.498   1.081
  -2.891   3.462   1.081
  -3.175   3.380   1.081
  -3.442   3.253   1.081
  -3.686   3.085   1.081
  -3.899   2.880   1.081
  -4.077   2.644   1.081
  -4.214   2.382   1.081
  -4.308   2.101   1.081
  -4.356   1.809   1.081
  -4.356   1.513   1.081
  -4.308   1.221   1.081
  -4.214   0.940   1.081
  -4.077   0.678   1.081
  -2.301   3.682   0.864
  -2.597   3.692   0.864
  -2.892   3.660   0.864
  -3.179   3.585   0.864
  -3.452   3.469   0.864
  -3.706   3.314   0.864
  -3.934   3.124   0.864
  -4.132   2.903   0.864
  -4.296   2.656   0.864
  -4.422   2.387   0.864
  -4.507   2.103   0.864
  -4.550   1.809   0.864
  -4.550   1.513   0.864
  -4.507   1.219   0.864
  -4.422   0.935   0.864
  -4.296   0.666   0.864
  -2.303   3.851   0.626
  -2.597   3.861   0.626
  -2.889   3.832   0.626
  -3.175   3.764   0.626
  -3.450   3.658   0.626
  -3.708   3.517   0.626
  -3.944   3.342   0.626
  -4.156   3.138   0.626
  -4.338   2.907   0.626
  -4.488   2.654   0.626
  -4.603   2.383   0.626
  -4.680   2.100   0.626
  -4.720   1.808   0.626
  -4.720   1.514   0.626
  -4.680   1.223   0.626
  -4.603   0.939   0.626
  -2.084   3.962   0.371
  -2.376   3.999   0.371
  -2.670   3.999   0.371
  -2.962   3.962   0.371
  -3.247   3.889   0.371
  -3.520   3.781   0.371
  -3.778   3.639   0.371
  -4.016   3.466   0.371
  -4.231   3.265   0.371
  -4.418   3.038   0.371
  -4.576   2.790   0.371
  -4.701   2.523   0.371
  -4.792   2.244   0.371
  -4.847   1.955   0.371
  -4.866   1.661   0.371
  -4.847   1.367   0.371
  -4.792   1.078   0.371
  -1.936   4.044   0.102
  -2.227   4.097   0.102
  -2.523   4.115   0.102
  -2.819   4.097   0.102
  -3.110   4.044   0.102
  -3.393   3.956   0.102
  -3.663   3.834   0.102
  -3.917   3.681   0.102
  -4.150   3.498   0.102
  -4.360   3.288   0.102
  -4.543   3.055   0.102
  -4.696   2.801   0.102
  -4.818   2.531   0.102
  -4.906   2.248   0.102
  -4.959   1.957   0.102
  -4.977   1.661   0.102
  -4.959   1.365   0.102
  -4.906   1.074   0.102
  -1.796   4.089  -0.178
  -2.083   4.157  -0.178
  -2.376   4.192  -0.178
  -2.670   4.192  -0.178
  -2.963   4.157  -0.178
  -3.250   4.089  -0.178
  -3.527   3.989  -0.178
  -3.790   3.856  -0.178
  -4.037   3.694  -0.178
  -4.262   3.505  -0.178
  -4.465   3.290  -0.178
  -4.641   3.054  -0.178
  -4.788   2.799  -0.178
  -4.905   2.528  -0.178
  -4.989   2.246  -0.178
  -5.041   1.955  -0.178
  -5.058   1.661  -0.178
  -5.041   1.367  -0.178
  -1.725   4.118  -0.466