 $system timlim=999888777
         mwords=100 $end
 $contrl exetyp=run
         runtyp=energy scftyp=rhf
         icharg=-1 mult=1 units=angs coord=unique
         maxit=50 ispher=1 qmttol=1d-6 icut=12 itol=22 $end
 $scf    dirscf=.t. diis=.t. soscf=.f.
         fdiff=.f. conv=1d-6
         npreo(1)=0,-1,1,9999 $end
 $elpot  iepot=1 where=points $end
 $basis  gbasis=n311 ngauss=6
         ndfunc=1 npfunc=1 diffsp=.t. diffs=.t. $end
 $DATA
TS1a_hfd_irc200_all_revmov.pdb
C1
P     15.0     0.00100   0.00900  -0.00400 
O      8.0     0.01700  -0.03900   1.62900 
O      8.0     1.23700   0.05800  -0.83700 
F      9.0    -0.08000  -1.64600   0.11100 
O      8.0    -1.50300  -0.12200  -0.62900 
C      6.0    -2.15200   0.85600  -1.37700 
H      1.0    -2.50600   1.67200  -0.75800 
H      1.0    -1.51500   1.26500  -2.15300 
H      1.0    -3.00000   0.36600  -1.84600 
C      6.0     0.43200   0.99700   2.46200 
H      1.0     0.56200   0.55900   3.44800 
H      1.0     1.37800   1.42000   2.14300 
H      1.0    -0.29900   1.79200   2.51500 
O      8.0    -0.18500   1.74000   0.05800 
H      1.0     0.54300   2.07500  -0.44400 
 $END
 $POINTS
ANGS 3050
  -2.639   0.926   1.752
   2.606  -1.423   1.428
   2.765  -1.086   1.428
   2.881  -0.730   1.428
   2.759  -1.439   1.086
  -0.283  -1.724  -2.798
   0.096  -1.744  -2.798
  -0.370  -1.374  -2.977
   0.001  -1.423  -2.977
  -0.188  -1.064  -3.119
  -1.656  -1.097   3.609
  -1.465  -1.352   3.609
  -1.235  -1.573   3.609
  -0.973  -1.754   3.609
  -0.685  -1.890   3.609
  -0.379  -1.979   3.609
  -0.063  -2.017   3.609
  -2.120  -0.515   3.375
  -2.028  -0.821   3.375
  -1.892  -1.110   3.375
  -1.716  -1.377   3.375
  -1.502  -1.615   3.375
  -1.257  -1.819   3.375
  -0.984  -1.986   3.375
  -0.690  -2.111   3.375
  -0.381  -2.192   3.375
  -0.063  -2.227   3.375
   0.256  -2.215   3.375
   0.571  -2.157   3.375
   0.873  -2.054   3.375
  -2.306  -0.511   3.119
  -2.223  -0.817   3.119
  -2.099  -1.108   3.119
  -1.938  -1.381   3.119
  -1.741  -1.629   3.119
  -1.514  -1.849   3.119
  -1.259  -2.037   3.119
  -0.981  -2.190   3.119
  -0.685  -2.303   3.119
  -0.377  -2.377   3.119
  -0.062  -2.409   3.119
   0.254  -2.398   3.119
   0.567  -2.345   3.119
   0.869  -2.251   3.119
   1.156  -2.118   3.119
   1.423  -1.948   3.119
  -2.506  -0.039   2.844
  -2.486  -0.355   2.844
  -2.426  -0.666   2.844
  -2.329  -0.968   2.844
  -2.194  -1.254   2.844
  -2.024  -1.522   2.844
  -1.822  -1.766   2.844
  -1.591  -1.983   2.844
  -1.335  -2.169   2.844
  -1.057  -2.322   2.844
  -0.763  -2.438   2.844
  -0.456  -2.517   2.844
  -0.141  -2.557   2.844
   0.175  -2.557   2.844
   0.490  -2.517   2.844
   0.797  -2.438   2.844
   1.091  -2.322   2.844
   1.369  -2.169   2.844
   1.625  -1.983   2.844
   1.856  -1.766   2.844
  -2.607   0.280   2.554
  -2.626  -0.039   2.554
  -2.607  -0.358   2.554
  -2.549  -0.671   2.554
  -2.454  -0.976   2.554
  -2.323  -1.267   2.554
  -2.158  -1.540   2.554
  -1.961  -1.792   2.554
  -1.736  -2.017   2.554
  -1.484  -2.214   2.554
   1.245  -2.379   2.554
   1.518  -2.214   2.554
   1.770  -2.017   2.554
   1.995  -1.792   2.554
  -2.639   0.591   2.252
  -2.694   0.278   2.252
  -2.713  -0.039   2.252
  -2.694  -0.356   2.252
  -2.639  -0.669   2.252
  -2.548  -0.973   2.252
  -2.422  -1.264   2.252
  -2.264  -1.539   2.252
  -2.074  -1.794   2.252
   1.890  -2.025   2.252
   2.108  -1.794   2.252
   2.298  -1.539   2.252
  -2.653   0.745   1.943
  -2.725   0.435   1.943
  -2.761   0.120   1.943
  -2.761  -0.198   1.943
  -2.725  -0.513   1.943
  -2.653  -0.823   1.943
  -2.546  -1.122   1.943
  -2.406  -1.407   1.943
   2.171  -1.800   1.943
   2.358  -1.543   1.943
   2.514  -1.267   1.943
   2.990  -0.862   1.143
   3.115  -0.569   1.143
   3.191  -0.260   1.143
   3.426   0.058   0.909
   2.867  -1.403   0.909
   3.063  -1.150   0.909
   3.219  -0.871   0.909
   3.333  -0.573   0.909
   3.403  -0.261   0.909
   3.608   0.058   0.653
   3.587   0.374   0.653
   3.524   0.684   0.653
   2.885  -1.646   0.653
   3.098  -1.411   0.653
   3.277  -1.150   0.653
   3.420  -0.868   0.653
   3.524  -0.568   0.653
   3.587  -0.258   0.653
   3.760   0.058   0.378
   3.740   0.374   0.378
   3.680   0.685   0.378
   3.583   0.987   0.378
   3.448   1.273   0.378
   2.845  -1.886   0.378
   3.076  -1.669   0.378
   3.278  -1.425   0.378
   3.448  -1.157   0.378
   3.583  -0.871   0.378
   3.680  -0.569   0.378
   3.740  -0.258   0.378
   3.880   0.058   0.088
   3.861   0.377   0.088
   3.803   0.690   0.088
   3.708   0.995   0.088
   3.577   1.286   0.088
   3.412   1.559   0.088
   3.215   1.811   0.088
   2.990  -1.920   0.088
   3.215  -1.695   0.088
   3.412  -1.443   0.088
   3.577  -1.170   0.088
   3.708  -0.879   0.088
   3.803  -0.574   0.088
   3.861  -0.261   0.088
   3.967   0.058  -0.214
   3.948   0.375  -0.214
   3.893   0.688  -0.214
   3.802   0.992  -0.214
   3.676   1.283  -0.214
   3.518   1.558  -0.214
   3.328   1.813  -0.214
   2.867  -2.132  -0.214
   3.110  -1.928  -0.214
   3.328  -1.697  -0.214
   3.518  -1.442  -0.214
   3.676  -1.167  -0.214
   3.802  -0.876  -0.214
   3.893  -0.572  -0.214
   3.948  -0.259  -0.214
   4.019   0.058  -0.523
   4.001   0.375  -0.523
   3.947   0.688  -0.523
   3.858   0.993  -0.523
   3.734   1.286  -0.523
   3.578   1.562  -0.523
   3.391   1.819  -0.523
   3.176   2.053  -0.523
   2.674  -2.325  -0.523
   2.936  -2.145  -0.523
   3.176  -1.937  -0.523
   3.391  -1.703  -0.523
   3.578  -1.446  -0.523
   3.734  -1.170  -0.523
   3.858  -0.877  -0.523
   3.947  -0.572  -0.523
   4.001  -0.259  -0.523
   4.037   0.058  -0.837
   4.019   0.372  -0.837
   3.967   0.681  -0.837
   3.880   0.983  -0.837
   3.760   1.273  -0.837
   3.608   1.548  -0.837
   3.426   1.804  -0.837
   3.217   2.038  -0.837
   2.727  -2.313  -0.837
   2.983  -2.131  -0.837
   3.217  -1.922  -0.837
   3.426  -1.688  -0.837
   3.608  -1.432  -0.837
   3.760  -1.157  -0.837
   3.880  -0.867  -0.837
   3.967  -0.565  -0.837
   4.019  -0.256  -0.837
   4.019   0.058  -1.150
   4.001   0.375  -1.150
   3.947   0.688  -1.150
   3.858   0.993  -1.150
   3.734   1.286  -1.150
   3.578   1.562  -1.150
   3.391   1.819  -1.150
   3.176   2.053  -1.150
   2.393  -2.473  -1.150
   2.674  -2.325  -1.150
   2.936  -2.145  -1.150
   3.176  -1.937  -1.150
   3.391  -1.703  -1.150
   3.578  -1.446  -1.150
   3.734  -1.170  -1.150
   3.858  -0.877  -1.150
   3.947  -0.572  -1.150
   4.001  -0.259  -1.150
   3.967   0.058  -1.460
   3.948   0.375  -1.460
   3.893   0.688  -1.460
   3.802   0.992  -1.460
   3.676   1.283  -1.460
   3.518   1.558  -1.460
   3.328   1.813  -1.460
   3.110   2.044  -1.460
   2.318  -2.449  -1.460
   2.602  -2.306  -1.460
   2.867  -2.132  -1.460
   3.110  -1.928  -1.460
   3.328  -1.697  -1.460
   3.518  -1.442  -1.460
   3.676  -1.167  -1.460
   3.802  -0.876  -1.460
   3.893  -0.572  -1.460
   3.948  -0.259  -1.460
   3.880   0.058  -1.762
   3.861   0.377  -1.762
   3.803   0.690  -1.762
   3.708   0.995  -1.762
   3.577   1.286  -1.762
   3.412   1.559  -1.762
   3.215   1.811  -1.762
   2.990   2.036  -1.762
   2.174  -2.413  -1.762
   2.465  -2.282  -1.762
   2.738  -2.117  -1.762
   2.990  -1.920  -1.762
   3.215  -1.695  -1.762
   3.412  -1.443  -1.762
   3.577  -1.170  -1.762
   3.708  -0.879  -1.762
   3.803  -0.574  -1.762
   3.861  -0.261  -1.762
   3.760   0.058  -2.052
   3.740   0.374  -2.052
   3.680   0.685  -2.052
   3.583   0.987  -2.052
   3.448   1.273  -2.052
   3.278   1.541  -2.052
   3.076   1.785  -2.052
   2.845   2.002  -2.052
   2.589   2.188  -2.052
   1.710  -2.420  -2.052
   2.017  -2.341  -2.052
   2.311  -2.225  -2.052
   2.589  -2.072  -2.052
   2.845  -1.886  -2.052
   3.076  -1.669  -2.052
   3.278  -1.425  -2.052
   3.448  -1.157  -2.052
   3.583  -0.871  -2.052
   3.680  -0.569  -2.052
   3.740  -0.258  -2.052
   3.608   0.058  -2.327
   3.587   0.374  -2.327
   3.524   0.684  -2.327
   3.420   0.984  -2.327
   3.277   1.266  -2.327
   3.098   1.527  -2.327
   2.885   1.762  -2.327
   2.643   1.967  -2.327
   2.376   2.137  -2.327
   1.474  -2.301  -2.327
   1.787  -2.248  -2.327
   2.089  -2.154  -2.327
   2.376  -2.021  -2.327
   2.643  -1.851  -2.327
   2.885  -1.646  -2.327
   3.098  -1.411  -2.327
   3.277  -1.150  -2.327
   3.420  -0.868  -2.327
   3.524  -0.568  -2.327
   3.587  -0.258  -2.327
   3.426   0.058  -2.583
   3.403   0.377  -2.583
   3.333   0.689  -2.583
   3.219   0.987  -2.583
   3.063   1.266  -2.583
   2.867   1.519  -2.583
   2.637   1.741  -2.583
   2.377   1.927  -2.583
   2.093   2.073  -2.583
   0.839  -2.095  -2.583
   1.157  -2.130  -2.583
   1.476  -2.118  -2.583
   1.791  -2.060  -2.583
   2.093  -1.957  -2.583
   2.377  -1.811  -2.583
   2.637  -1.625  -2.583
   2.867  -1.403  -2.583
   3.063  -1.150  -2.583
   3.219  -0.871  -2.583
   3.333  -0.573  -2.583
   3.403  -0.261  -2.583
   3.217   0.058  -2.817
   3.191   0.376  -2.817
   3.115   0.685  -2.817
   2.990   0.978  -2.817
   2.820   1.247  -2.817
   2.609   1.486  -2.817
   2.362   1.687  -2.817
   2.086   1.847  -2.817
   1.788   1.960  -2.817
   0.535  -1.793  -2.817
   0.841  -1.882  -2.817
   1.157  -1.920  -2.817
   1.476  -1.907  -2.817
   1.788  -1.844  -2.817
   2.086  -1.731  -2.817
   2.362  -1.571  -2.817
   2.609  -1.370  -2.817
   2.820  -1.131  -2.817
   2.990  -0.862  -2.817
   3.115  -0.569  -2.817
   3.191  -0.260  -2.817
   2.983   0.058  -3.026
   2.953   0.379  -3.026
   2.865   0.689  -3.026
   2.721   0.977  -3.026
   2.527   1.234  -3.026
   2.289   1.451  -3.026
   2.015   1.621  -3.026
   1.715   1.737  -3.026
   1.398   1.796  -3.026
   1.076   1.796  -3.026
   0.185  -1.335  -3.026
   0.459  -1.505  -3.026
   0.759  -1.621  -3.026
   1.076  -1.680  -3.026
   1.398  -1.680  -3.026
   1.715  -1.621  -3.026
   2.015  -1.505  -3.026
   2.289  -1.335  -3.026
   2.527  -1.118  -3.026
   2.721  -0.861  -3.026
   2.865  -0.573  -3.026
   2.953  -0.263  -3.026
   2.727   0.058  -3.208
   2.692   0.378  -3.208
   2.589   0.684  -3.208
   2.423   0.960  -3.208
   2.201   1.193  -3.208
   1.935   1.374  -3.208
   1.636   1.493  -3.208
   1.318   1.546  -3.208
   0.996   1.528  -3.208
   0.155  -0.966  -3.208
   0.401  -1.175  -3.208
   0.686  -1.326  -3.208
   0.996  -1.412  -3.208
   1.318  -1.430  -3.208
   1.636  -1.377  -3.208
   1.935  -1.258  -3.208
   2.201  -1.077  -3.208
   2.423  -0.844  -3.208
   2.589  -0.568  -3.208
   2.692  -0.262  -3.208
   2.452   0.058  -3.360
   2.410   0.372  -3.360
   2.289   0.665  -3.360
   2.096   0.917  -3.360
   1.844   1.110  -3.360
   1.551   1.231  -3.360
   1.237   1.273  -3.360
   0.923   1.231  -3.360
   0.185  -0.549  -3.360
   0.378  -0.801  -3.360
   0.630  -0.994  -3.360
   0.923  -1.115  -3.360
   1.237  -1.157  -3.360
   1.551  -1.115  -3.360
   1.844  -0.994  -3.360
   2.096  -0.801  -3.360
   2.289  -0.549  -3.360
   2.410  -0.256  -3.360
   2.162   0.058  -3.480
   2.106   0.374  -3.480
   1.945   0.652  -3.480
   1.699   0.859  -3.480
   1.398   0.969  -3.480
   1.076   0.969  -3.480
   0.775   0.859  -3.480
   0.368  -0.258  -3.480
   0.529  -0.536  -3.480
   0.775  -0.743  -3.480
   1.076  -0.853  -3.480
   1.398  -0.853  -3.480
   1.699  -0.743  -3.480
   1.945  -0.536  -3.480
   2.106  -0.258  -3.480
   1.860   0.058  -3.567
   1.777   0.370  -3.567
   1.549   0.598  -3.567
   1.237   0.681  -3.567
   0.925   0.598  -3.567
   0.697   0.370  -3.567
   0.614   0.058  -3.567
   0.697  -0.254  -3.567
   0.925  -0.482  -3.567
   1.237  -0.565  -3.567
   1.549  -0.482  -3.567
   1.777  -0.254  -3.567
   1.551   0.058  -3.619
   1.394   0.330  -3.619
   1.080   0.330  -3.619
   0.923   0.058  -3.619
   1.080  -0.214  -3.619
   1.394  -0.214  -3.619
   1.237   0.058  -3.637
  -0.245  -2.579   2.820
   0.085  -2.579   2.820
  -0.961  -2.527   2.697
  -0.703  -2.724   2.697
  -0.402  -2.849   2.697
  -0.080  -2.891   2.697
   0.242  -2.849   2.697
   0.543  -2.724   2.697
   0.801  -2.527   2.697
  -1.388  -2.433   2.541
  -1.189  -2.696   2.541
  -0.937  -2.910   2.541
  -0.645  -3.064   2.541
  -0.327  -3.153   2.541
   0.003  -3.171   2.541
   0.328  -3.117   2.541
   0.635  -2.995   2.541
   0.909  -2.810   2.541
   1.136  -2.570   2.541
  -1.749  -2.292   2.355
  -1.601  -2.588   2.355
  -1.402  -2.852   2.355
  -1.158  -3.074   2.355
  -0.878  -3.248   2.355
  -0.570  -3.367   2.355
  -0.245  -3.428   2.355
   0.085  -3.428   2.355
   0.410  -3.367   2.355
   0.718  -3.248   2.355
   0.998  -3.074   2.355
   1.242  -2.852   2.355
   1.441  -2.588   2.355
   1.589  -2.292   2.355
  -2.103  -1.809   2.140
  -2.050  -2.132   2.140
  -1.947  -2.441   2.140
  -1.795  -2.731   2.140
  -1.599  -2.992   2.140
  -1.363  -3.218   2.140
  -1.095  -3.404   2.140
  -0.800  -3.544   2.140
  -0.486  -3.634   2.140
  -0.162  -3.674   2.140
   0.165  -3.661   2.140
   0.485  -3.595   2.140
   0.790  -3.479   2.140
   1.073  -3.316   2.140
   1.326  -3.110   2.140
   1.542  -2.865   2.140
   1.717  -2.589   2.140
   1.845  -2.289   2.140
  -2.318  -1.810   1.900
  -2.270  -2.134   1.900
  -2.176  -2.448   1.900
  -2.037  -2.744   1.900
  -1.856  -3.017   1.900
  -1.637  -3.261   1.900
  -1.386  -3.471   1.900
  -1.106  -3.642   1.900
  -0.805  -3.770   1.900
  -0.488  -3.853   1.900
  -0.162  -3.888   1.900
   0.165  -3.876   1.900
   0.488  -3.817   1.900
   0.798  -3.711   1.900
   1.089  -3.561   1.900
   1.355  -3.371   1.900
   1.591  -3.143   1.900
   1.791  -2.884   1.900
   1.952  -2.598   1.900
   2.069  -2.292   1.900
   2.140  -1.973   1.900
   2.350  -1.646   1.638
  -2.505  -1.484   1.638
  -2.505  -1.808   1.638
  -2.461  -2.130   1.638
  -2.376  -2.443   1.638
  -2.249  -2.742   1.638
  -2.083  -3.021   1.638
  -1.882  -3.276   1.638
  -1.649  -3.502   1.638
  -1.388  -3.694   1.638
  -1.103  -3.850   1.638
  -0.800  -3.967   1.638
  -0.484  -4.042   1.638
  -0.161  -4.075   1.638
   0.163  -4.064   1.638
   0.483  -4.010   1.638
   0.793  -3.914   1.638
   1.088  -3.777   1.638
   1.361  -3.602   1.638
   1.609  -3.393   1.638
   1.827  -3.152   1.638
   2.011  -2.884   1.638
   2.157  -2.595   1.638
   2.264  -2.288   1.638
   2.328  -1.970   1.638
  -2.645  -1.970   1.356
  -2.585  -2.289   1.356
  -2.484  -2.598   1.356
  -2.346  -2.892   1.356
  -2.172  -3.166   1.356
  -1.965  -3.416   1.356
  -1.728  -3.638   1.356
  -1.466  -3.829   1.356
  -1.181  -3.986   1.356
  -0.879  -4.105   1.356
  -0.565  -4.186   1.356
  -0.242  -4.227   1.356
   0.082  -4.227   1.356
   0.405  -4.186   1.356
   0.719  -4.105   1.356
   1.021  -3.986   1.356
   1.306  -3.829   1.356
   1.568  -3.638   1.356
   1.805  -3.416   1.356
   2.012  -3.166   1.356
   2.186  -2.892   1.356
   2.324  -2.598   1.356
   2.425  -2.289   1.356
   2.485  -1.970   1.356
  -2.769  -1.973   1.059
  -2.710  -2.294   1.059
  -2.613  -2.607   1.059
  -2.479  -2.905   1.059
  -2.309  -3.185   1.059
  -2.108  -3.442   1.059
  -1.876  -3.674   1.059
  -1.619  -3.875   1.059
  -1.339  -4.045   1.059
  -1.041  -4.179   1.059
  -0.728  -4.276   1.059
  -0.407  -4.335   1.059
  -0.080  -4.355   1.059
   0.247  -4.335   1.059
   0.568  -4.276   1.059
   0.881  -4.179   1.059
   1.179  -4.045   1.059
   1.459  -3.875   1.059
   1.716  -3.674   1.059
   1.948  -3.442   1.059
   2.149  -3.185   1.059
   2.319  -2.905   1.059
   2.453  -2.607   1.059
   2.550  -2.294   1.059
   2.609  -1.973   1.059
  -2.803  -2.291   0.750
  -2.709  -2.603   0.750
  -2.580  -2.902   0.750
  -2.418  -3.184   0.750
  -2.223  -3.445   0.750
  -2.000  -3.681   0.750
  -1.751  -3.890   0.750
  -1.479  -4.069   0.750
  -1.188  -4.215   0.750
  -0.882  -4.326   0.750
  -0.566  -4.402   0.750
  -0.243  -4.439   0.750
   0.083  -4.439   0.750
   0.406  -4.402   0.750
   0.722  -4.326   0.750
   1.028  -4.215   0.750
   1.319  -4.069   0.750
   1.591  -3.890   0.750
   1.840  -3.681   0.750
   2.063  -3.445   0.750
   2.258  -3.184   0.750
   2.420  -2.902   0.750
   2.549  -2.603   0.750
   2.643  -2.291   0.750
   2.699  -1.971   0.750
  -2.816  -2.449   0.432
  -2.707  -2.756   0.432
  -2.563  -3.048   0.432
  -2.387  -3.322   0.432
  -2.181  -3.574   0.432
  -1.948  -3.801   0.432
  -1.690  -4.000   0.432
  -1.411  -4.168   0.432
  -1.115  -4.304   0.432
  -0.805  -4.404   0.432
  -0.486  -4.469   0.432
  -0.161  -4.497   0.432
   0.164  -4.487   0.432
   0.486  -4.441   0.432
   0.801  -4.358   0.432
   1.105  -4.240   0.432
   1.393  -4.088   0.432
   1.662  -3.904   0.432
   1.908  -3.691   0.432
   2.128  -3.451   0.432
   2.319  -3.188   0.432
   2.479  -2.904   0.432
   2.606  -2.604   0.432
   2.698  -2.292   0.432
   2.753  -1.971   0.432
  -2.789  -2.594   0.111
  -2.666  -2.891   0.111
  -2.510  -3.173   0.111
  -2.324  -3.435   0.111
  -2.109  -3.675   0.111
  -1.869  -3.890   0.111
  -1.607  -4.076   0.111
  -1.325  -4.232   0.111
  -1.028  -4.355   0.111
  -0.719  -4.444   0.111
  -0.401  -4.498   0.111
  -0.080  -4.516   0.111
   0.241  -4.498   0.111
   0.559  -4.444   0.111
   0.868  -4.355   0.111
   1.165  -4.232   0.111
   1.447  -4.076   0.111
   1.709  -3.890   0.111
   1.949  -3.675   0.111
   2.164  -3.435   0.111
   2.350  -3.173   0.111
   2.506  -2.891   0.111
   2.629  -2.594   0.111
   2.718  -2.285   0.111
  -2.707  -2.756  -0.210
  -2.563  -3.048  -0.210
  -2.387  -3.322  -0.210
  -2.181  -3.574  -0.210
  -1.948  -3.801  -0.210
  -1.690  -4.000  -0.210
  -1.411  -4.168  -0.210
  -1.115  -4.304  -0.210
  -0.805  -4.404  -0.210
  -0.486  -4.469  -0.210
  -0.161  -4.497  -0.210
   0.164  -4.487  -0.210
   0.486  -4.441  -0.210
   0.801  -4.358  -0.210
   1.105  -4.240  -0.210
   1.393  -4.088  -0.210
   1.662  -3.904  -0.210
   1.908  -3.691  -0.210
   2.128  -3.451  -0.210
   2.319  -3.188  -0.210
   2.479  -2.904  -0.210
   2.606  -2.604  -0.210
   2.698  -2.292  -0.210
  -2.580  -2.902  -0.528
  -2.418  -3.184  -0.528
  -2.223  -3.445  -0.528
  -2.000  -3.681  -0.528
  -1.751  -3.890  -0.528
  -1.479  -4.069  -0.528
  -1.188  -4.215  -0.528
  -0.882  -4.326  -0.528
  -0.566  -4.402  -0.528
  -0.243  -4.439  -0.528
   0.083  -4.439  -0.528
   0.406  -4.402  -0.528
   0.722  -4.326  -0.528
   1.028  -4.215  -0.528
   1.319  -4.069  -0.528
   1.591  -3.890  -0.528
   1.840  -3.681  -0.528
   2.063  -3.445  -0.528
   2.258  -3.184  -0.528
   2.420  -2.902  -0.528
   2.549  -2.603  -0.528
  -2.479  -2.905  -0.837
  -2.309  -3.185  -0.837
  -2.108  -3.442  -0.837
  -1.876  -3.674  -0.837
  -1.619  -3.875  -0.837
  -1.339  -4.045  -0.837
  -1.041  -4.179  -0.837
  -0.728  -4.276  -0.837
  -0.407  -4.335  -0.837
  -0.080  -4.355  -0.837
   0.247  -4.335  -0.837
   0.568  -4.276  -0.837
   0.881  -4.179  -0.837
   1.179  -4.045  -0.837
   1.459  -3.875  -0.837
   1.716  -3.674  -0.837
   1.948  -3.442  -0.837
   2.149  -3.185  -0.837
   2.319  -2.905  -0.837
   2.453  -2.607  -0.837
  -2.346  -2.892  -1.134
  -2.172  -3.166  -1.134
  -1.965  -3.416  -1.134
  -1.728  -3.638  -1.134
  -1.466  -3.829  -1.134
  -1.181  -3.986  -1.134
  -0.879  -4.105  -1.134
  -0.565  -4.186  -1.134
  -0.242  -4.227  -1.134
   0.082  -4.227  -1.134
   0.405  -4.186  -1.134
   0.719  -4.105  -1.134
   1.021  -3.986  -1.134
   1.306  -3.829  -1.134
   1.568  -3.638  -1.134
   1.805  -3.416  -1.134
   2.012  -3.166  -1.134
   2.186  -2.892  -1.134
   2.324  -2.598  -1.134
  -2.249  -2.742  -1.416
  -2.083  -3.021  -1.416
  -1.882  -3.276  -1.416
  -1.649  -3.502  -1.416
  -1.388  -3.694  -1.416
  -1.103  -3.850  -1.416
  -0.800  -3.967  -1.416
  -0.484  -4.042  -1.416
  -0.161  -4.075  -1.416
   0.163  -4.064  -1.416
   0.483  -4.010  -1.416
   0.793  -3.914  -1.416
   1.088  -3.777  -1.416
   1.361  -3.602  -1.416
   1.609  -3.393  -1.416
   1.827  -3.152  -1.416
   2.011  -2.884  -1.416
   2.157  -2.595  -1.416
  -2.037  -2.744  -1.678
  -1.856  -3.017  -1.678
  -1.637  -3.261  -1.678
  -1.386  -3.471  -1.678
  -1.106  -3.642  -1.678
  -0.805  -3.770  -1.678
  -0.488  -3.853  -1.678
  -0.162  -3.888  -1.678
   0.165  -3.876  -1.678
   0.488  -3.817  -1.678
   0.798  -3.711  -1.678
   1.089  -3.561  -1.678
   1.355  -3.371  -1.678
   1.591  -3.143  -1.678
   1.791  -2.884  -1.678
   1.952  -2.598  -1.678
  -1.795  -2.731  -1.918
  -1.599  -2.992  -1.918
  -1.363  -3.218  -1.918
  -1.095  -3.404  -1.918
  -0.800  -3.544  -1.918
  -0.486  -3.634  -1.918
  -0.162  -3.674  -1.918
   0.165  -3.661  -1.918
   0.485  -3.595  -1.918
   0.790  -3.479  -1.918
   1.073  -3.316  -1.918
   1.326  -3.110  -1.918
   1.542  -2.865  -1.918
   1.717  -2.589  -1.918
  -1.601  -2.588  -2.133
  -1.402  -2.852  -2.133
  -1.158  -3.074  -2.133
  -0.878  -3.248  -2.133
  -0.570  -3.367  -2.133
  -0.245  -3.428  -2.133
   0.085  -3.428  -2.133
   0.410  -3.367  -2.133
   0.718  -3.248  -2.133
   0.998  -3.074  -2.133
   1.242  -2.852  -2.133
   1.441  -2.588  -2.133
  -1.388  -2.433  -2.319
  -1.189  -2.696  -2.319
  -0.937  -2.910  -2.319
  -0.645  -3.064  -2.319
  -0.327  -3.153  -2.319
   0.003  -3.171  -2.319
   0.328  -3.117  -2.319
   0.635  -2.995  -2.319
   0.909  -2.810  -2.319
   1.136  -2.570  -2.319
  -1.158  -2.269  -2.475
  -0.961  -2.527  -2.475
  -0.703  -2.724  -2.475
  -0.402  -2.849  -2.475
  -0.080  -2.891  -2.475
   0.242  -2.849  -2.475
   0.543  -2.724  -2.475
   0.801  -2.527  -2.475
   0.998  -2.269  -2.475
  -0.806  -2.255  -2.598
  -0.554  -2.467  -2.598
  -0.245  -2.580  -2.598
   0.085  -2.580  -2.598
   0.394  -2.467  -2.598
   0.646  -2.255  -2.598
  -0.633  -1.965  -2.687
  -0.399  -2.199  -2.687
  -0.080  -2.285  -2.687
   0.239  -2.199  -2.687
   0.473  -1.965  -2.687
  -0.241  -1.924  -2.741
   0.081  -1.924  -2.741
  -2.779   0.646   1.742
  -2.915   0.354   1.742
  -2.984   0.039   1.742
  -2.984  -0.283   1.742
  -2.915  -0.598   1.742
  -2.779  -0.890   1.742
  -2.585  -1.146   1.742
  -3.131   0.509   1.560
  -3.219   0.199   1.560
  -3.249  -0.122   1.560
  -3.219  -0.443   1.560
  -3.131  -0.753   1.560
  -2.987  -1.041   1.560
  -2.793  -1.298   1.560
  -2.555  -1.515   1.560
  -3.476   0.037   1.351
  -3.476  -0.281   1.351
  -3.425  -0.596   1.351
  -3.324  -0.898   1.351
  -3.176  -1.180   1.351
  -2.985  -1.435   1.351
  -2.755  -1.656   1.351
  -3.686  -0.282   1.117
  -3.640  -0.598   1.117
  -3.548  -0.904   1.117
  -3.412  -1.193   1.117
  -3.236  -1.460   1.117
  -3.022  -1.698   1.117
  -2.777  -1.902   1.117
  -3.826  -0.594   0.861
  -3.743  -0.900   0.861
  -3.619  -1.191   0.861
  -3.458  -1.464   0.861
  -3.261  -1.712   0.861
  -3.034  -1.932   0.861
  -3.946  -0.749   0.586
  -3.849  -1.051   0.586
  -3.714  -1.337   0.586
  -3.544  -1.605   0.586
  -3.342  -1.849   0.586
  -3.111  -2.066   0.586
  -2.855  -2.252   0.586
  -3.974  -1.059   0.296
  -3.843  -1.350   0.296
  -3.678  -1.623   0.296
  -3.481  -1.875   0.296
  -3.256  -2.100   0.296
  -3.004  -2.297   0.296
  -3.942  -1.347  -0.006
  -3.784  -1.622  -0.006
  -3.594  -1.877  -0.006
  -3.376  -2.108  -0.006
  -3.133  -2.312  -0.006
  -2.868  -2.486  -0.006
  -3.754  -1.757  -0.315
  -3.553  -2.003  -0.315
  -3.325  -2.225  -0.315
  -3.074  -2.419  -0.315
  -2.801  -2.583  -0.315
  -3.692  -1.868  -0.629
  -3.483  -2.102  -0.629
  -3.249  -2.311  -0.629
  -2.993  -2.493  -0.629
  -2.718  -2.645  -0.629
  -3.325  -2.225  -0.942
  -3.074  -2.419  -0.942
  -2.801  -2.583  -0.942
  -3.133  -2.312  -1.252
  -2.868  -2.486  -1.252
  -2.584  -2.629  -1.252
  -3.004  -2.297  -1.554
  -2.731  -2.462  -1.554
  -2.440  -2.593  -1.554
  -2.855  -2.252  -1.844
  -2.577  -2.405  -1.844
  -2.283  -2.521  -1.844
  -1.976  -2.600  -1.844
  -2.501  -2.273  -2.119
  -2.205  -2.386  -2.119
  -1.897  -2.460  -2.119
  -2.210  -2.194  -2.375
  -1.901  -2.275  -2.375
  -1.583  -2.310  -2.375
  -1.899  -2.062  -2.609
  -1.583  -2.100  -2.609
  -1.264  -2.087  -2.609
  -0.952  -2.024  -2.609
  -1.664  -1.860  -2.818
  -1.342  -1.860  -2.818
  -1.025  -1.801  -2.818
  -0.725  -1.685  -2.818
  -0.805  -1.438  -3.000
  -3.451   0.508   1.416
  -3.715   0.329   1.248
  -4.052   0.501   1.047
  -3.954   0.158   1.047
  -3.795  -0.161   1.047
  -4.337   0.680   0.815
  -4.280   0.331   0.815
  -4.169  -0.003   0.815
  -4.005  -0.316   0.815
  -4.569   0.679   0.556
  -4.518   0.329   0.556
  -4.416  -0.010   0.556
  -4.266  -0.330   0.556
  -4.070  -0.625   0.556
  -4.771   0.681   0.272
  -4.724   0.333   0.272
  -4.632  -0.005   0.272
  -4.495  -0.328   0.272
  -4.316  -0.630   0.272
  -4.099  -0.905   0.272
  -4.945   0.856  -0.032
  -4.923   0.506  -0.032
  -4.857   0.161  -0.032
  -5.057   1.209  -0.353
  -5.078   0.856  -0.353
  -5.108   1.724  -1.030
  -5.078   1.880  -1.377
  -4.834   2.371  -1.724
  -4.990   2.055  -1.724
  -1.976   3.873  -2.067
  -4.467   2.799  -2.067
  -4.677   2.517  -2.067
  -4.853   2.212  -2.067
  -2.152   3.782  -2.401
  -2.505   3.761  -2.401
  -2.852   3.697  -2.401
  -3.190   3.592  -2.401
  -3.512   3.447  -2.401
  -3.814   3.264  -2.401
  -4.092   3.046  -2.401
  -4.342   2.796  -2.401
  -4.560   2.518  -2.401
  -4.743   2.216  -2.401
  -2.675   3.600  -2.722
  -3.015   3.512  -2.722
  -3.341   3.383  -2.722
  -3.649   3.214  -2.722
  -3.932   3.008  -2.722
  -4.188   2.768  -2.722
  -4.412   2.498  -2.722
  -1.977  -1.931  -2.722
  -2.930   3.363  -3.026
  -3.257   3.237  -3.026
  -3.564   3.068  -3.026
  -3.847   2.860  -3.026
  -4.099   2.617  -3.026
  -4.316   2.342  -3.026
  -1.889  -1.756  -3.026
  -1.544  -1.697  -3.026
  -1.209  -1.593  -3.026
  -0.891  -1.446  -3.026
  -0.595  -1.257  -3.026
  -2.935   3.150  -3.310
  -3.260   3.011  -3.310
  -3.562   2.827  -3.310
  -3.834   2.601  -3.310
  -4.070   2.337  -3.310
  -1.887  -1.553  -3.310
  -1.539  -1.489  -3.310
  -1.204  -1.375  -3.310
  -0.889  -1.213  -3.310
  -0.602  -1.007  -3.310
  -0.347  -0.761  -3.310
  -3.248   2.754  -3.569
  -3.538   2.554  -3.569
  -3.793   2.310  -3.569
  -1.888  -1.320  -3.569
  -1.542  -1.249  -3.569
  -1.212  -1.124  -3.569
  -0.907  -0.948  -3.569
  -3.317   2.398  -3.801
  -3.580   2.158  -3.801
  -1.974  -1.069  -3.801
  -1.623  -1.003  -3.801
  -1.290  -0.874  -3.801
  -0.987  -0.686  -3.801
  -3.078   2.221  -4.002
  -3.349   1.990  -4.002
  -3.565   1.706  -4.002
  -2.063  -0.791  -4.002
  -1.711  -0.733  -4.002
  -1.379  -0.601  -4.002
  -3.103   1.807  -4.170
  -3.317   1.529  -4.170
  -2.152  -0.489  -4.170
  -1.804  -0.443  -4.170
  -1.974  -0.152  -4.303
  -2.842   0.856  -4.399
  -2.497   0.259  -4.399
  -2.795   2.173   1.777
  -3.007   1.961   1.777
  -3.085   1.672   1.777
  -3.007   1.383   1.777
  -2.795   1.171   1.777
  -2.935   2.416   1.696
  -3.164   2.224   1.696
  -3.313   1.966   1.696
  -3.365   1.672   1.696
  -3.313   1.378   1.696
  -3.164   1.120   1.696
  -2.935   0.928   1.696
  -2.798   2.762   1.585
  -3.070   2.649   1.585
  -3.304   2.470   1.585
  -3.483   2.236   1.585
  -3.596   1.964   1.585
  -3.634   1.672   1.585
  -3.596   1.380   1.585
  -3.483   1.108   1.585
  -3.304   0.874   1.585
  -3.070   0.695   1.585
  -2.431   3.053   1.443
  -2.730   3.037   1.443
  -3.018   2.957   1.443
  -3.282   2.817   1.443
  -3.510   2.623   1.443
  -3.691   2.385   1.443
  -3.817   2.114   1.443
  -3.881   1.822   1.443
  -3.881   1.522   1.443
  -3.817   1.230   1.443
  -3.691   0.959   1.443
  -3.510   0.721   1.443
  -2.356   3.286   1.275
  -2.656   3.286   1.275
  -2.950   3.231   1.275
  -3.229   3.123   1.275
  -3.483   2.966   1.275
  -3.704   2.764   1.275
  -3.884   2.525   1.275
  -4.018   2.258   1.275
  -4.099   1.970   1.275
  -4.127   1.672   1.275
  -4.099   1.374   1.275
  -4.018   1.086   1.275
  -3.884   0.819   1.275
  -2.284   3.497   1.080
  -2.580   3.509   1.080
  -2.874   3.473   1.080
  -3.158   3.391   1.080
  -3.425   3.264   1.080
  -3.669   3.096   1.080
  -3.882   2.891   1.080
  -4.060   2.655   1.080
  -4.197   2.393   1.080
  -4.291   2.112   1.080
  -4.339   1.820   1.080
  -4.339   1.524   1.080
  -4.291   1.232   1.080
  -4.197   0.951   1.080
  -4.060   0.689   1.080
  -2.284   3.693   0.863
  -2.580   3.703   0.863
  -2.875   3.671   0.863
  -3.162   3.596   0.863
  -3.435   3.480   0.863
  -3.689   3.325   0.863
  -3.917   3.135   0.863
  -4.115   2.914   0.863
  -4.279   2.667   0.863
  -4.405   2.398   0.863
  -4.490   2.114   0.863
  -4.533   1.820   0.863
  -4.533   1.524   0.863
  -4.490   1.230   0.863
  -4.405   0.946   0.863
  -1.996   3.814   0.625
  -2.286   3.862   0.625
  -2.580   3.872   0.625
  -2.872   3.843   0.625
  -3.158   3.775   0.625
  -3.433   3.669   0.625
  -3.691   3.528   0.625
  -3.927   3.353   0.625
  -4.139   3.149   0.625
  -4.321   2.918   0.625
  -4.471   2.665   0.625
  -4.586   2.394   0.625
  -4.663   2.111   0.625
  -4.703   1.819   0.625
  -4.703   1.525   0.625
  -4.663   1.234   0.625
  -4.586   0.950   0.625
  -2.067   3.973   0.370
  -2.359   4.010   0.370
  -2.653   4.010   0.370
  -2.945   3.973   0.370
  -3.230   3.900   0.370
  -3.503   3.792   0.370
  -3.761   3.650   0.370
  -3.999   3.477   0.370
  -4.214   3.276   0.370
  -4.401   3.049   0.370
  -4.559   2.801   0.370
  -4.684   2.534   0.370
  -4.775   2.255   0.370
  -4.830   1.966   0.370
  -4.849   1.672   0.370
  -4.830   1.378   0.370
  -4.775   1.089   0.370
  -1.919   4.055   0.101
  -2.210   4.108   0.101
  -2.506   4.126   0.101
  -2.802   4.108   0.101
  -3.093   4.055   0.101
  -3.376   3.967   0.101
  -3.646   3.845   0.101
  -3.900   3.692   0.101
  -4.133   3.509   0.101
  -4.343   3.299   0.101
  -4.526   3.066   0.101
  -4.679   2.812   0.101
  -4.801   2.542   0.101
  -4.889   2.259   0.101
  -4.942   1.968   0.101
  -4.960   1.672   0.101
  -4.942   1.376   0.101
  -4.889   1.085   0.101
  -1.779   4.100  -0.179
  -2.066   4.168  -0.179
  -2.359   4.203  -0.179
  -2.653   4.203  -0.179
  -2.946   4.168  -0.179
  -3.233   4.100  -0.179
  -3.510   4.000  -0.179
  -3.773   3.867  -0.179
  -4.020   3.705  -0.179
  -4.245   3.516  -0.179
  -4.448   3.301  -0.179
  -4.624   3.065  -0.179