 $system timlim=999888777
         mwords=100 $end
 $contrl exetyp=run
         runtyp=energy scftyp=rhf
         icharg=-1 mult=1 units=angs coord=unique
         maxit=50 ispher=1 qmttol=1d-6 icut=12 itol=22 $end
 $scf    dirscf=.t. diis=.t. soscf=.f.
         fdiff=.f. conv=1d-6
         npreo(1)=0,-1,1,9999 $end
 $elpot  iepot=1 where=points $end
 $basis  gbasis=n311 ngauss=6
         ndfunc=1 npfunc=1 diffsp=.t. diffs=.t. $end
 $DATA
TS1a_hfd_irc200_all_revmov.pdb
C1
P     15.0     0.00000   0.00300  -0.00100 
O      8.0     0.00800  -0.01900   1.63100 
O      8.0     1.24000   0.02700  -0.83100 
F      9.0    -0.09700  -1.64900   0.13900 
O      8.0    -1.50300  -0.12200  -0.62900 
C      6.0    -2.15200   0.85600  -1.37700 
H      1.0    -2.49500   1.67700  -0.76100 
H      1.0    -1.51800   1.25700  -2.16100 
H      1.0    -3.00700   0.36800  -1.83700 
C      6.0     0.40800   1.03100   2.45300 
H      1.0     0.52500   0.61000   3.44800 
H      1.0     1.35700   1.45300   2.14200 
H      1.0    -0.32600   1.82600   2.48500 
O      8.0    -0.16600   1.73800   0.03000 
H      1.0     0.56700   2.05400  -0.47400 
 $END
 $POINTS
ANGS 3046
   2.605  -1.429   1.431
   2.764  -1.092   1.431
   2.880  -0.736   1.431
   2.758  -1.445   1.089
  -0.284  -1.730  -2.795
   0.095  -1.750  -2.795
  -0.371  -1.380  -2.974
   0.000  -1.429  -2.974
  -0.189  -1.070  -3.116
  -1.813  -0.795   3.611
  -1.665  -1.077   3.611
  -1.474  -1.332   3.611
  -1.244  -1.553   3.611
  -0.982  -1.734   3.611
  -0.694  -1.870   3.611
  -0.388  -1.959   3.611
  -0.072  -1.997   3.611
   0.247  -1.984   3.611
  -2.129  -0.495   3.377
  -2.037  -0.801   3.377
  -1.901  -1.090   3.377
  -1.725  -1.357   3.377
  -1.511  -1.595   3.377
  -1.266  -1.799   3.377
  -0.993  -1.966   3.377
  -0.699  -2.091   3.377
  -0.390  -2.172   3.377
  -0.072  -2.207   3.377
   0.247  -2.195   3.377
   0.562  -2.137   3.377
   0.864  -2.034   3.377
  -2.315  -0.491   3.121
  -2.232  -0.797   3.121
  -2.108  -1.088   3.121
  -1.947  -1.361   3.121
  -1.750  -1.609   3.121
  -1.523  -1.829   3.121
  -1.268  -2.017   3.121
  -0.990  -2.170   3.121
  -0.694  -2.283   3.121
  -0.386  -2.357   3.121
  -0.071  -2.389   3.121
   0.245  -2.378   3.121
   0.558  -2.325   3.121
   0.860  -2.231   3.121
   1.147  -2.098   3.121
   1.414  -1.928   3.121
  -2.515  -0.019   2.846
  -2.495  -0.335   2.846
  -2.435  -0.646   2.846
  -2.338  -0.948   2.846
  -2.203  -1.234   2.846
  -2.033  -1.502   2.846
  -1.831  -1.746   2.846
  -1.600  -1.963   2.846
  -1.344  -2.149   2.846
  -1.066  -2.302   2.846
  -0.772  -2.418   2.846
   0.481  -2.497   2.846
   0.788  -2.418   2.846
   1.082  -2.302   2.846
   1.360  -2.149   2.846
   1.616  -1.963   2.846
   1.847  -1.746   2.846
  -2.616   0.300   2.556
  -2.635  -0.019   2.556
  -2.616  -0.338   2.556
  -2.558  -0.651   2.556
  -2.463  -0.956   2.556
  -2.332  -1.247   2.556
  -2.167  -1.520   2.556
  -1.970  -1.772   2.556
  -1.745  -1.997   2.556
   1.509  -2.194   2.556
   1.761  -1.997   2.556
   1.986  -1.772   2.556
   2.183  -1.520   2.556
  -2.703   0.298   2.254
  -2.722  -0.019   2.254
  -2.703  -0.336   2.254
  -2.648  -0.649   2.254
  -2.557  -0.953   2.254
  -2.431  -1.244   2.254
  -2.273  -1.519   2.254
  -2.083  -1.774   2.254
   1.881  -2.005   2.254
   2.099  -1.774   2.254
   2.289  -1.519   2.254
  -2.662   0.765   1.945
  -2.734   0.455   1.945
  -2.770   0.140   1.945
  -2.770  -0.178   1.945
  -2.734  -0.493   1.945
  -2.662  -0.803   1.945
  -2.555  -1.102   1.945
  -2.415  -1.387   1.945
   2.162  -1.780   1.945
   2.349  -1.523   1.945
   2.505  -1.247   1.945
   2.993  -0.893   1.149
   3.118  -0.600   1.149
   3.194  -0.291   1.149
   3.429   0.027   0.915
   3.406   0.346   0.915
   2.870  -1.434   0.915
   3.066  -1.181   0.915
   3.222  -0.902   0.915
   3.336  -0.604   0.915
   3.406  -0.292   0.915
   3.611   0.027   0.659
   3.590   0.343   0.659
   3.527   0.653   0.659
   2.888  -1.677   0.659
   3.101  -1.442   0.659
   3.280  -1.181   0.659
   3.423  -0.899   0.659
   3.527  -0.599   0.659
   3.590  -0.289   0.659
   3.763   0.027   0.384
   3.743   0.343   0.384
   3.683   0.654   0.384
   3.586   0.956   0.384
   3.451   1.242   0.384
   3.281   1.510   0.384
   2.848  -1.917   0.384
   3.079  -1.700   0.384
   3.281  -1.456   0.384
   3.451  -1.188   0.384
   3.586  -0.902   0.384
   3.683  -0.600   0.384
   3.743  -0.289   0.384
   3.883   0.027   0.094
   3.864   0.346   0.094
   3.806   0.659   0.094
   3.711   0.964   0.094
   3.580   1.255   0.094
   3.415   1.528   0.094
   3.218   1.780   0.094
   2.741  -2.148   0.094
   2.993  -1.951   0.094
   3.218  -1.726   0.094
   3.415  -1.474   0.094
   3.580  -1.201   0.094
   3.711  -0.910   0.094
   3.806  -0.605   0.094
   3.864  -0.292   0.094
   3.970   0.027  -0.208
   3.951   0.344  -0.208
   3.896   0.657  -0.208
   3.805   0.961  -0.208
   3.679   1.252  -0.208
   3.521   1.527  -0.208
   3.331   1.782  -0.208
   2.870  -2.163  -0.208
   3.113  -1.959  -0.208
   3.331  -1.728  -0.208
   3.521  -1.473  -0.208
   3.679  -1.198  -0.208
   3.805  -0.907  -0.208
   3.896  -0.603  -0.208
   3.951  -0.290  -0.208
   4.022   0.027  -0.517
   4.004   0.344  -0.517
   3.950   0.657  -0.517
   3.861   0.962  -0.517
   3.737   1.255  -0.517
   3.581   1.531  -0.517
   3.394   1.788  -0.517
   3.179   2.022  -0.517
   2.677  -2.356  -0.517
   2.939  -2.176  -0.517
   3.179  -1.968  -0.517
   3.394  -1.734  -0.517
   3.581  -1.477  -0.517
   3.737  -1.201  -0.517
   3.861  -0.908  -0.517
   3.950  -0.603  -0.517
   4.004  -0.290  -0.517
   4.040   0.027  -0.831
   4.022   0.341  -0.831
   3.970   0.650  -0.831
   3.883   0.952  -0.831
   3.763   1.242  -0.831
   3.611   1.517  -0.831
   3.429   1.773  -0.831
   3.220   2.007  -0.831
   2.730  -2.344  -0.831
   2.986  -2.162  -0.831
   3.220  -1.953  -0.831
   3.429  -1.719  -0.831
   3.611  -1.463  -0.831
   3.763  -1.188  -0.831
   3.883  -0.898  -0.831
   3.970  -0.596  -0.831
   4.022  -0.287  -0.831
   4.022   0.027  -1.144
   4.004   0.344  -1.144
   3.950   0.657  -1.144
   3.861   0.962  -1.144
   3.737   1.255  -1.144
   3.581   1.531  -1.144
   3.394   1.788  -1.144
   3.179   2.022  -1.144
   2.396  -2.504  -1.144
   2.677  -2.356  -1.144
   2.939  -2.176  -1.144
   3.179  -1.968  -1.144
   3.394  -1.734  -1.144
   3.581  -1.477  -1.144
   3.737  -1.201  -1.144
   3.861  -0.908  -1.144
   3.950  -0.603  -1.144
   4.004  -0.290  -1.144
   3.970   0.027  -1.454
   3.951   0.344  -1.454
   3.896   0.657  -1.454
   3.805   0.961  -1.454
   3.679   1.252  -1.454
   3.521   1.527  -1.454
   3.331   1.782  -1.454
   3.113   2.013  -1.454
   2.321  -2.480  -1.454
   2.605  -2.337  -1.454
   2.870  -2.163  -1.454
   3.113  -1.959  -1.454
   3.331  -1.728  -1.454
   3.521  -1.473  -1.454
   3.679  -1.198  -1.454
   3.805  -0.907  -1.454
   3.896  -0.603  -1.454
   3.951  -0.290  -1.454
   3.883   0.027  -1.756
   3.864   0.346  -1.756
   3.806   0.659  -1.756
   3.711   0.964  -1.756
   3.580   1.255  -1.756
   3.415   1.528  -1.756
   3.218   1.780  -1.756
   2.993   2.005  -1.756
   1.872  -2.539  -1.756
   2.177  -2.444  -1.756
   2.468  -2.313  -1.756
   2.741  -2.148  -1.756
   2.993  -1.951  -1.756
   3.218  -1.726  -1.756
   3.415  -1.474  -1.756
   3.580  -1.201  -1.756
   3.711  -0.910  -1.756
   3.806  -0.605  -1.756
   3.864  -0.292  -1.756
   3.763   0.027  -2.046
   3.743   0.343  -2.046
   3.683   0.654  -2.046
   3.586   0.956  -2.046
   3.451   1.242  -2.046
   3.281   1.510  -2.046
   3.079   1.754  -2.046
   2.848   1.971  -2.046
   1.713  -2.451  -2.046
   2.020  -2.372  -2.046
   2.314  -2.256  -2.046
   2.592  -2.103  -2.046
   2.848  -1.917  -2.046
   3.079  -1.700  -2.046
   3.281  -1.456  -2.046
   3.451  -1.188  -2.046
   3.586  -0.902  -2.046
   3.683  -0.600  -2.046
   3.743  -0.289  -2.046
   3.611   0.027  -2.321
   3.590   0.343  -2.321
   3.527   0.653  -2.321
   3.423   0.953  -2.321
   3.280   1.235  -2.321
   3.101   1.496  -2.321
   2.888   1.731  -2.321
   2.646   1.936  -2.321
   1.477  -2.332  -2.321
   1.790  -2.279  -2.321
   2.092  -2.185  -2.321
   2.379  -2.052  -2.321
   2.646  -1.882  -2.321
   2.888  -1.677  -2.321
   3.101  -1.442  -2.321
   3.280  -1.181  -2.321
   3.423  -0.899  -2.321
   3.527  -0.599  -2.321
   3.590  -0.289  -2.321
   3.429   0.027  -2.577
   3.406   0.346  -2.577
   3.336   0.658  -2.577
   3.222   0.956  -2.577
   3.066   1.235  -2.577
   2.870   1.488  -2.577
   2.640   1.710  -2.577
   2.380   1.896  -2.577
   2.096   2.042  -2.577
   0.842  -2.126  -2.577
   1.160  -2.161  -2.577
   1.479  -2.149  -2.577
   1.794  -2.091  -2.577
   2.096  -1.988  -2.577
   2.380  -1.842  -2.577
   2.640  -1.656  -2.577
   2.870  -1.434  -2.577
   3.066  -1.181  -2.577
   3.222  -0.902  -2.577
   3.336  -0.604  -2.577
   3.406  -0.292  -2.577
   3.220   0.027  -2.811
   3.194   0.345  -2.811
   3.118   0.654  -2.811
   2.993   0.947  -2.811
   2.823   1.216  -2.811
   2.612   1.455  -2.811
   2.365   1.656  -2.811
   2.089   1.816  -2.811
   1.791   1.929  -2.811
   0.538  -1.824  -2.811
   0.844  -1.913  -2.811
   1.160  -1.951  -2.811
   1.479  -1.938  -2.811
   1.791  -1.875  -2.811
   2.089  -1.762  -2.811
   2.365  -1.602  -2.811
   2.612  -1.401  -2.811
   2.823  -1.162  -2.811
   2.993  -0.893  -2.811
   3.118  -0.600  -2.811
   3.194  -0.291  -2.811
   2.986   0.027  -3.020
   2.956   0.348  -3.020
   2.868   0.658  -3.020
   2.724   0.946  -3.020
   2.530   1.203  -3.020
   2.292   1.420  -3.020
   2.018   1.590  -3.020
   1.718   1.706  -3.020
   1.401   1.765  -3.020
   1.079   1.765  -3.020
   0.188  -1.366  -3.020
   0.462  -1.536  -3.020
   0.762  -1.652  -3.020
   1.079  -1.711  -3.020
   1.401  -1.711  -3.020
   1.718  -1.652  -3.020
   2.018  -1.536  -3.020
   2.292  -1.366  -3.020
   2.530  -1.149  -3.020
   2.724  -0.892  -3.020
   2.868  -0.604  -3.020
   2.956  -0.294  -3.020
   2.730   0.027  -3.202
   2.695   0.347  -3.202
   2.592   0.653  -3.202
   2.426   0.929  -3.202
   2.204   1.162  -3.202
   1.938   1.343  -3.202
   1.639   1.462  -3.202
   1.321   1.515  -3.202
   0.999   1.497  -3.202
   0.158  -0.997  -3.202
   0.404  -1.206  -3.202
   0.689  -1.357  -3.202
   0.999  -1.443  -3.202
   1.321  -1.461  -3.202
   1.639  -1.408  -3.202
   1.938  -1.289  -3.202
   2.204  -1.108  -3.202
   2.426  -0.875  -3.202
   2.592  -0.599  -3.202
   2.695  -0.293  -3.202
   2.455   0.027  -3.354
   2.413   0.341  -3.354
   2.292   0.634  -3.354
   2.099   0.886  -3.354
   1.847   1.079  -3.354
   1.554   1.200  -3.354
   1.240   1.242  -3.354
   0.926   1.200  -3.354
   0.188  -0.580  -3.354
   0.381  -0.832  -3.354
   0.633  -1.025  -3.354
   0.926  -1.146  -3.354
   1.240  -1.188  -3.354
   1.554  -1.146  -3.354
   1.847  -1.025  -3.354
   2.099  -0.832  -3.354
   2.292  -0.580  -3.354
   2.413  -0.287  -3.354
   2.165   0.027  -3.474
   2.109   0.343  -3.474
   1.948   0.621  -3.474
   1.702   0.828  -3.474
   1.401   0.938  -3.474
   1.079   0.938  -3.474
   0.778   0.828  -3.474
   0.371  -0.289  -3.474
   0.532  -0.567  -3.474
   0.778  -0.774  -3.474
   1.079  -0.884  -3.474
   1.401  -0.884  -3.474
   1.702  -0.774  -3.474
   1.948  -0.567  -3.474
   2.109  -0.289  -3.474
   1.863   0.027  -3.561
   1.780   0.339  -3.561
   1.552   0.567  -3.561
   1.240   0.650  -3.561
   0.928   0.567  -3.561
   0.700   0.339  -3.561
   0.617   0.027  -3.561
   0.700  -0.285  -3.561
   0.928  -0.513  -3.561
   1.240  -0.596  -3.561
   1.552  -0.513  -3.561
   1.780  -0.285  -3.561
   1.554   0.027  -3.613
   1.397   0.299  -3.613
   1.083   0.299  -3.613
   0.926   0.027  -3.613
   1.083  -0.245  -3.613
   1.397  -0.245  -3.613
   1.240   0.027  -3.631
  -0.262  -2.582   2.848
   0.068  -2.582   2.848
  -0.978  -2.530   2.725
  -0.720  -2.727   2.725
  -0.419  -2.852   2.725
  -0.097  -2.894   2.725
   0.225  -2.852   2.725
   0.526  -2.727   2.725
   0.784  -2.530   2.725
  -1.405  -2.436   2.569
  -1.206  -2.699   2.569
  -0.954  -2.913   2.569
  -0.662  -3.067   2.569
  -0.344  -3.156   2.569
  -0.014  -3.174   2.569
   0.311  -3.120   2.569
   0.618  -2.998   2.569
   0.892  -2.813   2.569
   1.119  -2.573   2.569
  -1.856  -1.978   2.383
  -1.766  -2.295   2.383
  -1.618  -2.591   2.383
  -1.419  -2.855   2.383
  -1.175  -3.077   2.383
  -0.895  -3.251   2.383
  -0.587  -3.370   2.383
  -0.262  -3.431   2.383
   0.068  -3.431   2.383
   0.393  -3.370   2.383
   0.701  -3.251   2.383
   0.981  -3.077   2.383
   1.225  -2.855   2.383
   1.424  -2.591   2.383
   1.572  -2.295   2.383
  -2.120  -1.812   2.168
  -2.067  -2.135   2.168
  -1.964  -2.444   2.168
  -1.812  -2.734   2.168
  -1.616  -2.995   2.168
  -1.380  -3.221   2.168
  -1.112  -3.407   2.168
  -0.817  -3.547   2.168
  -0.503  -3.637   2.168
  -0.179  -3.677   2.168
   0.148  -3.664   2.168
   0.468  -3.598   2.168
   0.773  -3.482   2.168
   1.056  -3.319   2.168
   1.309  -3.113   2.168
   1.525  -2.868   2.168
   1.700  -2.592   2.168
   1.828  -2.292   2.168
  -2.335  -1.813   1.928
  -2.287  -2.137   1.928
  -2.193  -2.451   1.928
  -2.054  -2.747   1.928
  -1.873  -3.020   1.928
  -1.654  -3.264   1.928
  -1.403  -3.474   1.928
  -1.123  -3.645   1.928
  -0.822  -3.773   1.928
  -0.505  -3.856   1.928
  -0.179  -3.891   1.928
   0.148  -3.879   1.928
   0.471  -3.820   1.928
   0.781  -3.714   1.928
   1.072  -3.564   1.928
   1.338  -3.374   1.928
   1.574  -3.146   1.928
   1.774  -2.887   1.928
   1.935  -2.601   1.928
   2.052  -2.295   1.928
   2.123  -1.976   1.928
   2.333  -1.649   1.666
  -2.522  -1.487   1.666
  -2.522  -1.811   1.666
  -2.478  -2.133   1.666
  -2.393  -2.446   1.666
  -2.266  -2.745   1.666
  -2.100  -3.024   1.666
  -1.899  -3.279   1.666
  -1.666  -3.505   1.666
  -1.405  -3.697   1.666
  -1.120  -3.853   1.666
  -0.817  -3.970   1.666
  -0.501  -4.045   1.666
  -0.178  -4.078   1.666
   0.146  -4.067   1.666
   0.466  -4.013   1.666
   0.776  -3.917   1.666
   1.071  -3.780   1.666
   1.344  -3.605   1.666
   1.592  -3.396   1.666
   1.810  -3.155   1.666
   1.994  -2.887   1.666
   2.140  -2.598   1.666
   2.247  -2.291   1.666
   2.311  -1.973   1.666
  -2.662  -1.973   1.384
  -2.602  -2.292   1.384
  -2.501  -2.601   1.384
  -2.363  -2.895   1.384
  -2.189  -3.169   1.384
  -1.982  -3.419   1.384
  -1.745  -3.641   1.384
  -1.483  -3.832   1.384
  -1.198  -3.989   1.384
  -0.896  -4.108   1.384
  -0.582  -4.189   1.384
  -0.259  -4.230   1.384
   0.065  -4.230   1.384
   0.388  -4.189   1.384
   0.702  -4.108   1.384
   1.004  -3.989   1.384
   1.289  -3.832   1.384
   1.551  -3.641   1.384
   1.788  -3.419   1.384
   1.995  -3.169   1.384
   2.169  -2.895   1.384
   2.307  -2.601   1.384
   2.408  -2.292   1.384
   2.468  -1.973   1.384
  -2.786  -1.976   1.087
  -2.727  -2.297   1.087
  -2.630  -2.610   1.087
  -2.496  -2.908   1.087
  -2.326  -3.188   1.087
  -2.125  -3.445   1.087
  -1.893  -3.677   1.087
  -1.636  -3.878   1.087
  -1.356  -4.048   1.087
  -1.058  -4.182   1.087
  -0.745  -4.279   1.087
  -0.424  -4.338   1.087
  -0.097  -4.358   1.087
   0.230  -4.338   1.087
   0.551  -4.279   1.087
   0.864  -4.182   1.087
   1.162  -4.048   1.087
   1.442  -3.878   1.087
   1.699  -3.677   1.087
   1.931  -3.445   1.087
   2.132  -3.188   1.087
   2.302  -2.908   1.087
   2.436  -2.610   1.087
   2.533  -2.297   1.087
   2.592  -1.976   1.087
  -2.820  -2.294   0.778
  -2.726  -2.606   0.778
  -2.597  -2.905   0.778
  -2.435  -3.187   0.778
  -2.240  -3.448   0.778
  -2.017  -3.684   0.778
  -1.768  -3.893   0.778
  -1.496  -4.072   0.778
  -1.205  -4.218   0.778
  -0.899  -4.329   0.778
  -0.583  -4.405   0.778
  -0.260  -4.442   0.778
   0.066  -4.442   0.778
   0.389  -4.405   0.778
   0.705  -4.329   0.778
   1.011  -4.218   0.778
   1.302  -4.072   0.778
   1.574  -3.893   0.778
   1.823  -3.684   0.778
   2.046  -3.448   0.778
   2.241  -3.187   0.778
   2.403  -2.905   0.778
   2.532  -2.606   0.778
   2.626  -2.294   0.778
   2.682  -1.974   0.778
  -2.833  -2.452   0.460
  -2.724  -2.759   0.460
  -2.580  -3.051   0.460
  -2.404  -3.325   0.460
  -2.198  -3.577   0.460
  -1.965  -3.804   0.460
  -1.707  -4.003   0.460
  -1.428  -4.171   0.460
  -1.132  -4.307   0.460
  -0.822  -4.407   0.460
  -0.503  -4.472   0.460
  -0.178  -4.500   0.460
   0.147  -4.490   0.460
   0.469  -4.444   0.460
   0.784  -4.361   0.460
   1.088  -4.243   0.460
   1.376  -4.091   0.460
   1.645  -3.907   0.460
   1.891  -3.694   0.460
   2.111  -3.454   0.460
   2.302  -3.191   0.460
   2.462  -2.907   0.460
   2.589  -2.607   0.460
   2.681  -2.295   0.460
   2.736  -1.974   0.460
  -2.806  -2.597   0.139
  -2.683  -2.894   0.139
  -2.527  -3.176   0.139
  -2.341  -3.438   0.139
  -2.126  -3.678   0.139
  -1.886  -3.893   0.139
  -1.624  -4.079   0.139
  -1.342  -4.235   0.139
  -1.045  -4.358   0.139
  -0.736  -4.447   0.139
  -0.418  -4.501   0.139
  -0.097  -4.519   0.139
   0.224  -4.501   0.139
   0.542  -4.447   0.139
   0.851  -4.358   0.139
   1.148  -4.235   0.139
   1.430  -4.079   0.139
   1.692  -3.893   0.139
   1.932  -3.678   0.139
   2.147  -3.438   0.139
   2.333  -3.176   0.139
   2.489  -2.894   0.139
   2.612  -2.597   0.139
   2.701  -2.288   0.139
  -2.724  -2.759  -0.182
  -2.580  -3.051  -0.182
  -2.404  -3.325  -0.182
  -2.198  -3.577  -0.182
  -1.965  -3.804  -0.182
  -1.707  -4.003  -0.182
  -1.428  -4.171  -0.182
  -1.132  -4.307  -0.182
  -0.822  -4.407  -0.182
  -0.503  -4.472  -0.182
  -0.178  -4.500  -0.182
   0.147  -4.490  -0.182
   0.469  -4.444  -0.182
   0.784  -4.361  -0.182
   1.088  -4.243  -0.182
   1.376  -4.091  -0.182
   1.645  -3.907  -0.182
   1.891  -3.694  -0.182
   2.111  -3.454  -0.182
   2.302  -3.191  -0.182
   2.462  -2.907  -0.182
   2.589  -2.607  -0.182
   2.681  -2.295  -0.182
  -2.597  -2.905  -0.500
  -2.435  -3.187  -0.500
  -2.240  -3.448  -0.500
  -2.017  -3.684  -0.500
  -1.768  -3.893  -0.500
  -1.496  -4.072  -0.500
  -1.205  -4.218  -0.500
  -0.899  -4.329  -0.500
  -0.583  -4.405  -0.500
  -0.260  -4.442  -0.500
   0.066  -4.442  -0.500
   0.389  -4.405  -0.500
   0.705  -4.330  -0.500
   1.011  -4.218  -0.500
   1.302  -4.072  -0.500
   1.574  -3.893  -0.500
   1.823  -3.684  -0.500
   2.046  -3.448  -0.500
   2.241  -3.187  -0.500
   2.403  -2.905  -0.500
   2.532  -2.606  -0.500
  -2.496  -2.908  -0.809
  -2.326  -3.188  -0.809
  -2.125  -3.445  -0.809
  -1.893  -3.677  -0.809
  -1.636  -3.878  -0.809
  -1.356  -4.048  -0.809
  -1.058  -4.182  -0.809
  -0.745  -4.279  -0.809
  -0.424  -4.338  -0.809
  -0.097  -4.358  -0.809
   0.230  -4.338  -0.809
   0.551  -4.279  -0.809
   0.864  -4.182  -0.809
   1.162  -4.048  -0.809
   1.442  -3.878  -0.809
   1.699  -3.677  -0.809
   1.931  -3.445  -0.809
   2.132  -3.188  -0.809
   2.302  -2.908  -0.809
   2.436  -2.610  -0.809
  -2.363  -2.895  -1.106
  -2.189  -3.169  -1.106
  -1.982  -3.419  -1.106
  -1.745  -3.641  -1.106
  -1.483  -3.832  -1.106
  -1.198  -3.989  -1.106
  -0.896  -4.108  -1.106
  -0.582  -4.189  -1.106
  -0.259  -4.230  -1.106
   0.065  -4.230  -1.106
   0.388  -4.189  -1.106
   0.702  -4.108  -1.106
   1.004  -3.989  -1.106
   1.289  -3.832  -1.106
   1.551  -3.641  -1.106
   1.788  -3.419  -1.106
   1.995  -3.169  -1.106
   2.169  -2.895  -1.106
   2.307  -2.601  -1.106
  -2.266  -2.745  -1.388
  -2.100  -3.024  -1.388
  -1.899  -3.279  -1.388
  -1.666  -3.505  -1.388
  -1.405  -3.697  -1.388
  -1.120  -3.853  -1.388
  -0.817  -3.970  -1.388
  -0.501  -4.045  -1.388
  -0.178  -4.078  -1.388
   0.146  -4.067  -1.388
   0.466  -4.013  -1.388
   0.776  -3.917  -1.388
   1.071  -3.780  -1.388
   1.344  -3.605  -1.388
   1.592  -3.396  -1.388
   1.810  -3.155  -1.388
   1.994  -2.887  -1.388
   2.140  -2.598  -1.388
  -2.054  -2.747  -1.650
  -1.873  -3.020  -1.650
  -1.654  -3.264  -1.650
  -1.403  -3.474  -1.650
  -1.123  -3.645  -1.650
  -0.822  -3.773  -1.650
  -0.505  -3.856  -1.650
  -0.179  -3.891  -1.650
   0.148  -3.879  -1.650
   0.471  -3.820  -1.650
   0.781  -3.714  -1.650
   1.072  -3.564  -1.650
   1.338  -3.374  -1.650
   1.574  -3.146  -1.650
   1.774  -2.887  -1.650
   1.935  -2.601  -1.650
  -1.812  -2.734  -1.890
  -1.616  -2.995  -1.890
  -1.380  -3.221  -1.890
  -1.112  -3.407  -1.890
  -0.817  -3.547  -1.890
  -0.503  -3.637  -1.890
  -0.179  -3.677  -1.890
   0.148  -3.664  -1.890
   0.468  -3.598  -1.890
   0.773  -3.482  -1.890
   1.056  -3.319  -1.890
   1.309  -3.113  -1.890
   1.525  -2.868  -1.890
   1.700  -2.592  -1.890
  -1.618  -2.591  -2.105
  -1.419  -2.855  -2.105
  -1.175  -3.077  -2.105
  -0.895  -3.251  -2.105
  -0.587  -3.370  -2.105
  -0.262  -3.431  -2.105
   0.068  -3.431  -2.105
   0.393  -3.370  -2.105
   0.701  -3.251  -2.105
   0.981  -3.077  -2.105
   1.225  -2.855  -2.105
   1.424  -2.591  -2.105
  -1.405  -2.436  -2.291
  -1.206  -2.699  -2.291
  -0.954  -2.913  -2.291
  -0.662  -3.067  -2.291
  -0.344  -3.156  -2.291
  -0.014  -3.174  -2.291
   0.311  -3.120  -2.291
   0.618  -2.998  -2.291
   0.892  -2.813  -2.291
   1.119  -2.573  -2.291
  -1.175  -2.272  -2.447
  -0.978  -2.530  -2.447
  -0.720  -2.727  -2.447
  -0.419  -2.852  -2.447
  -0.097  -2.894  -2.447
   0.225  -2.852  -2.447
   0.526  -2.727  -2.447
   0.784  -2.530  -2.447
   0.981  -2.272  -2.447
  -0.823  -2.258  -2.570
  -0.571  -2.470  -2.570
  -0.262  -2.583  -2.570
   0.068  -2.583  -2.570
   0.377  -2.470  -2.570
   0.629  -2.258  -2.570
  -0.650  -1.968  -2.659
  -0.416  -2.202  -2.659
  -0.097  -2.288  -2.659
   0.222  -2.202  -2.659
   0.456  -1.968  -2.659
  -0.258  -1.927  -2.713
   0.064  -1.927  -2.713
  -2.779   0.646   1.742
  -2.915   0.354   1.742
  -2.984   0.039   1.742
  -2.984  -0.283   1.742
  -2.915  -0.598   1.742
  -2.779  -0.890   1.742
  -2.585  -1.146   1.742
  -3.131   0.509   1.560
  -3.219   0.199   1.560
  -3.249  -0.122   1.560
  -3.219  -0.443   1.560
  -3.131  -0.753   1.560
  -2.987  -1.041   1.560
  -2.793  -1.298   1.560
  -3.476   0.037   1.351
  -3.476  -0.281   1.351
  -3.425  -0.596   1.351
  -3.324  -0.898   1.351
  -3.176  -1.180   1.351
  -2.985  -1.435   1.351
  -2.755  -1.656   1.351
  -3.686  -0.282   1.117
  -3.640  -0.598   1.117
  -3.548  -0.904   1.117
  -3.412  -1.193   1.117
  -3.236  -1.460   1.117
  -3.022  -1.698   1.117
  -3.826  -0.594   0.861
  -3.743  -0.900   0.861
  -3.619  -1.191   0.861
  -3.458  -1.464   0.861
  -3.261  -1.712   0.861
  -3.034  -1.932   0.861
  -3.946  -0.749   0.586
  -3.849  -1.051   0.586
  -3.714  -1.337   0.586
  -3.544  -1.605   0.586
  -3.342  -1.849   0.586
  -3.111  -2.066   0.586
  -3.974  -1.059   0.296
  -3.843  -1.350   0.296
  -3.678  -1.623   0.296
  -3.481  -1.875   0.296
  -3.256  -2.100   0.296
  -3.004  -2.297   0.296
  -3.942  -1.347  -0.006
  -3.784  -1.622  -0.006
  -3.594  -1.877  -0.006
  -3.376  -2.108  -0.006
  -3.133  -2.312  -0.006
  -2.868  -2.486  -0.006
  -3.754  -1.757  -0.315
  -3.553  -2.003  -0.315
  -3.325  -2.225  -0.315
  -3.074  -2.419  -0.315
  -2.801  -2.583  -0.315
  -3.692  -1.868  -0.629
  -3.483  -2.102  -0.629
  -3.249  -2.311  -0.629
  -2.993  -2.493  -0.629
  -2.718  -2.645  -0.629
  -3.325  -2.225  -0.942
  -3.074  -2.419  -0.942
  -2.801  -2.583  -0.942
  -3.133  -2.312  -1.252
  -2.868  -2.486  -1.252
  -2.584  -2.629  -1.252
  -3.004  -2.297  -1.554
  -2.731  -2.462  -1.554
  -2.440  -2.593  -1.554
  -2.855  -2.252  -1.844
  -2.577  -2.405  -1.844
  -2.283  -2.521  -1.844
  -1.976  -2.600  -1.844
  -2.501  -2.273  -2.119
  -2.205  -2.386  -2.119
  -1.897  -2.460  -2.119
  -2.210  -2.194  -2.375
  -1.901  -2.275  -2.375
  -1.583  -2.310  -2.375
  -1.899  -2.062  -2.609
  -1.583  -2.100  -2.609
  -1.264  -2.087  -2.609
  -0.952  -2.024  -2.609
  -1.664  -1.860  -2.818
  -1.342  -1.860  -2.818
  -1.025  -1.801  -2.818
  -0.725  -1.685  -2.818
  -0.805  -1.438  -3.000
  -3.451   0.508   1.416
  -3.715   0.329   1.248
  -4.052   0.501   1.047
  -3.954   0.158   1.047
  -3.795  -0.161   1.047
  -4.337   0.680   0.815
  -4.280   0.331   0.815
  -4.169  -0.003   0.815
  -4.005  -0.316   0.815
  -4.569   0.679   0.556
  -4.518   0.329   0.556
  -4.416  -0.010   0.556
  -4.266  -0.330   0.556
  -4.070  -0.625   0.556
  -4.771   0.681   0.272
  -4.724   0.333   0.272
  -4.632  -0.005   0.272
  -4.495  -0.328   0.272
  -4.316  -0.630   0.272
  -4.099  -0.905   0.272
  -4.945   0.856  -0.032
  -4.923   0.506  -0.032
  -5.057   1.209  -0.353
  -5.093   1.553  -0.687
  -5.108   1.724  -1.030
  -5.078   1.880  -1.377
  -4.834   2.371  -1.724
  -4.990   2.055  -1.724
  -1.976   3.873  -2.067
  -4.467   2.799  -2.067
  -4.677   2.517  -2.067
  -4.853   2.212  -2.067
  -2.152   3.782  -2.401
  -2.505   3.761  -2.401
  -2.852   3.697  -2.401
  -3.190   3.592  -2.401
  -3.512   3.447  -2.401
  -3.814   3.264  -2.401
  -4.092   3.046  -2.401
  -4.342   2.796  -2.401
  -4.560   2.518  -2.401
  -2.675   3.600  -2.722
  -3.015   3.512  -2.722
  -3.341   3.383  -2.722
  -3.649   3.214  -2.722
  -3.932   3.008  -2.722
  -4.188   2.768  -2.722
  -4.412   2.498  -2.722
  -1.977  -1.931  -2.722
  -2.930   3.363  -3.026
  -3.257   3.237  -3.026
  -3.564   3.068  -3.026
  -3.847   2.860  -3.026
  -4.099   2.617  -3.026
  -4.316   2.342  -3.026
  -1.889  -1.756  -3.026
  -1.544  -1.697  -3.026
  -1.209  -1.593  -3.026
  -0.891  -1.446  -3.026
  -0.595  -1.257  -3.026
  -2.935   3.150  -3.310
  -3.260   3.011  -3.310
  -3.562   2.827  -3.310
  -3.834   2.601  -3.310
  -4.070   2.337  -3.310
  -1.887  -1.553  -3.310
  -1.539  -1.489  -3.310
  -1.204  -1.375  -3.310
  -0.889  -1.213  -3.310
  -0.602  -1.007  -3.310
  -0.347  -0.761  -3.310
  -3.248   2.754  -3.569
  -3.538   2.554  -3.569
  -3.793   2.310  -3.569
  -1.888  -1.320  -3.569
  -1.542  -1.249  -3.569
  -1.212  -1.124  -3.569
  -0.907  -0.948  -3.569
  -3.317   2.398  -3.801
  -3.580   2.158  -3.801
  -1.974  -1.069  -3.801
  -1.623  -1.003  -3.801
  -1.290  -0.874  -3.801
  -3.349   1.990  -4.002
  -3.565   1.706  -4.002
  -2.063  -0.791  -4.002
  -1.711  -0.733  -4.002
  -1.379  -0.601  -4.002
  -3.103   1.807  -4.170
  -3.317   1.529  -4.170
  -2.152  -0.489  -4.170
  -1.804  -0.443  -4.170
  -3.114   1.206  -4.303
  -2.330  -0.152  -4.303
  -1.974  -0.152  -4.303
  -2.842   0.856  -4.399
  -2.497   0.259  -4.399
  -2.996   1.966   1.774
  -3.074   1.677   1.774
  -2.996   1.388   1.774
  -2.784   1.176   1.774
  -2.924   2.421   1.693
  -3.153   2.229   1.693
  -3.302   1.971   1.693
  -3.354   1.677   1.693
  -3.302   1.383   1.693
  -3.153   1.125   1.693
  -2.924   0.933   1.693
  -2.787   2.767   1.582
  -3.059   2.654   1.582
  -3.293   2.475   1.582
  -3.472   2.241   1.582
  -3.585   1.969   1.582
  -3.623   1.677   1.582
  -3.585   1.385   1.582
  -3.472   1.113   1.582
  -3.293   0.879   1.582
  -2.420   3.058   1.440
  -2.719   3.042   1.440
  -3.007   2.962   1.440
  -3.271   2.822   1.440
  -3.499   2.628   1.440
  -3.680   2.390   1.440
  -3.806   2.119   1.440
  -3.870   1.827   1.440
  -3.870   1.527   1.440
  -3.806   1.235   1.440
  -3.680   0.964   1.440
  -3.499   0.726   1.440
  -2.345   3.291   1.272
  -2.645   3.291   1.272
  -2.939   3.236   1.272
  -3.218   3.128   1.272
  -3.472   2.971   1.272
  -3.693   2.769   1.272
  -3.873   2.530   1.272
  -4.007   2.263   1.272
  -4.088   1.975   1.272
  -4.116   1.677   1.272
  -4.088   1.379   1.272
  -4.007   1.091   1.272
  -3.873   0.824   1.272
  -2.273   3.502   1.077
  -2.569   3.514   1.077
  -2.863   3.478   1.077
  -3.147   3.396   1.077
  -3.414   3.269   1.077
  -3.658   3.101   1.077
  -3.871   2.896   1.077
  -4.049   2.660   1.077
  -4.186   2.398   1.077
  -4.280   2.117   1.077
  -4.328   1.825   1.077
  -4.328   1.529   1.077
  -4.280   1.237   1.077
  -4.186   0.956   1.077
  -4.049   0.694   1.077
  -2.273   3.698   0.860
  -2.569   3.708   0.860
  -2.864   3.676   0.860
  -3.151   3.601   0.860
  -3.424   3.485   0.860
  -3.678   3.330   0.860
  -3.906   3.140   0.860
  -4.104   2.919   0.860
  -4.268   2.672   0.860
  -4.394   2.403   0.860
  -4.479   2.119   0.860
  -4.522   1.825   0.860
  -4.522   1.529   0.860
  -4.479   1.235   0.860
  -4.394   0.951   0.860
  -1.985   3.819   0.622
  -2.275   3.867   0.622
  -2.569   3.877   0.622
  -2.861   3.848   0.622
  -3.147   3.780   0.622
  -3.422   3.674   0.622
  -3.680   3.533   0.622
  -3.916   3.358   0.622
  -4.128   3.154   0.622
  -4.310   2.923   0.622
  -4.460   2.670   0.622
  -4.575   2.399   0.622
  -4.652   2.116   0.622
  -4.692   1.824   0.622
  -4.692   1.530   0.622
  -4.652   1.239   0.622
  -4.575   0.955   0.622
  -2.056   3.978   0.367
  -2.348   4.015   0.367
  -2.642   4.015   0.367
  -2.934   3.978   0.367
  -3.219   3.905   0.367
  -3.492   3.797   0.367
  -3.750   3.655   0.367
  -3.988   3.482   0.367
  -4.203   3.281   0.367
  -4.390   3.054   0.367
  -4.548   2.806   0.367
  -4.673   2.539   0.367
  -4.764   2.260   0.367
  -4.819   1.971   0.367
  -4.838   1.677   0.367
  -4.819   1.383   0.367
  -4.764   1.094   0.367
  -1.908   4.060   0.098
  -2.199   4.113   0.098
  -2.495   4.131   0.098
  -2.791   4.113   0.098
  -3.082   4.060   0.098
  -3.365   3.972   0.098
  -3.635   3.850   0.098
  -3.889   3.697   0.098
  -4.122   3.514   0.098
  -4.332   3.304   0.098
  -4.515   3.071   0.098
  -4.668   2.817   0.098
  -4.790   2.547   0.098
  -4.878   2.264   0.098
  -4.931   1.973   0.098
  -4.949   1.677   0.098
  -4.931   1.381   0.098
  -4.878   1.090   0.098
  -1.768   4.105  -0.182
  -2.055   4.173  -0.182
  -2.348   4.208  -0.182
  -2.642   4.208  -0.182
  -2.935   4.173  -0.182
  -3.222   4.105  -0.182
  -3.499   4.005  -0.182
  -3.762   3.872  -0.182
  -4.009   3.710  -0.182
  -4.234   3.521  -0.182
  -4.437   3.306  -0.182
  -4.613   3.070  -0.182
  -4.760   2.815  -0.182
  -4.877   2.544  -0.182
  -4.961   2.262  -0.182
  -5.013   1.971  -0.182
  -5.030   1.677  -0.182
  -5.013   1.383  -0.182
  -1.697   4.134  -0.470
  -1.982   4.209  -0.470