 $system timlim=999888777
         mwords=100 $end
 $contrl exetyp=run
         runtyp=energy scftyp=rhf
         icharg=-1 mult=1 units=angs coord=unique
         maxit=50 ispher=1 qmttol=1d-6 icut=12 itol=22 $end
 $scf    dirscf=.t. diis=.t. soscf=.f.
         fdiff=.f. conv=1d-6
         npreo(1)=0,-1,1,9999 $end
 $elpot  iepot=1 where=points $end
 $basis  gbasis=n311 ngauss=6
         ndfunc=1 npfunc=1 diffsp=.t. diffs=.t. $end
 $DATA
TS1a_hfd_irc200_all_revmov.pdb
C1
P     15.0     0.00100   0.00200  -0.00100 
O      8.0     0.00600  -0.01200   1.63200 
O      8.0     1.24100   0.01800  -0.83000 
F      9.0    -0.10200  -1.64900   0.14700 
O      8.0    -1.50300  -0.12200  -0.62900 
C      6.0    -2.15200   0.85600  -1.37700 
H      1.0    -2.49300   1.67800  -0.76100 
H      1.0    -1.51900   1.25500  -2.16200 
H      1.0    -3.00800   0.36800  -1.83400 
C      6.0     0.40200   1.04200   2.45000 
H      1.0     0.51600   0.62500   3.44800 
H      1.0     1.35300   1.46300   2.14000 
H      1.0    -0.33300   1.83600   2.47500 
O      8.0    -0.16100   1.73700   0.02300 
H      1.0     0.57300   2.04900  -0.48200 
 $END
 $POINTS
ANGS 3047
   2.606  -1.430   1.431
   2.765  -1.093   1.431
   2.881  -0.737   1.431
   2.759  -1.446   1.089
  -0.283  -1.731  -2.795
   0.096  -1.751  -2.795
  -0.370  -1.381  -2.974
   0.001  -1.430  -2.974
  -0.188  -1.071  -3.116
  -1.815  -0.788   3.612
  -1.667  -1.070   3.612
  -1.476  -1.325   3.612
  -1.246  -1.546   3.612
  -0.984  -1.727   3.612
  -0.696  -1.863   3.612
  -0.390  -1.952   3.612
  -0.074  -1.990   3.612
   0.245  -1.977   3.612
  -2.131  -0.488   3.378
  -2.039  -0.794   3.378
  -1.903  -1.083   3.378
  -1.727  -1.350   3.378
  -1.513  -1.588   3.378
  -1.268  -1.792   3.378
  -0.995  -1.959   3.378
  -0.701  -2.084   3.378
  -0.392  -2.165   3.378
  -0.074  -2.200   3.378
   0.245  -2.188   3.378
   0.560  -2.130   3.378
   0.862  -2.027   3.378
  -2.317  -0.484   3.122
  -2.234  -0.790   3.122
  -2.110  -1.081   3.122
  -1.949  -1.354   3.122
  -1.752  -1.602   3.122
  -1.525  -1.822   3.122
  -1.270  -2.010   3.122
  -0.992  -2.163   3.122
  -0.696  -2.276   3.122
  -0.388  -2.350   3.122
  -0.073  -2.382   3.122
   0.243  -2.371   3.122
   0.556  -2.318   3.122
   0.858  -2.224   3.122
   1.145  -2.091   3.122
   1.412  -1.921   3.122
   1.654  -1.716   3.122
  -2.517  -0.012   2.847
  -2.497  -0.328   2.847
  -2.437  -0.639   2.847
  -2.340  -0.941   2.847
  -2.205  -1.227   2.847
  -2.035  -1.495   2.847
  -1.833  -1.739   2.847
  -1.602  -1.956   2.847
  -1.346  -2.142   2.847
  -1.068  -2.295   2.847
  -0.774  -2.411   2.847
   0.479  -2.490   2.847
   0.786  -2.411   2.847
   1.080  -2.295   2.847
   1.358  -2.142   2.847
   1.614  -1.956   2.847
   1.845  -1.739   2.847
  -2.618   0.307   2.557
  -2.637  -0.012   2.557
  -2.618  -0.331   2.557
  -2.560  -0.644   2.557
  -2.465  -0.949   2.557
  -2.334  -1.240   2.557
  -2.169  -1.513   2.557
  -1.972  -1.765   2.557
  -1.747  -1.990   2.557
   1.507  -2.187   2.557
   1.759  -1.990   2.557
   1.984  -1.765   2.557
   2.181  -1.513   2.557
  -2.705   0.305   2.255
  -2.724  -0.012   2.255
  -2.705  -0.329   2.255
  -2.650  -0.642   2.255
  -2.559  -0.946   2.255
  -2.433  -1.237   2.255
  -2.275  -1.512   2.255
  -2.085  -1.767   2.255
   1.879  -1.998   2.255
   2.097  -1.767   2.255
   2.287  -1.512   2.255
  -2.664   0.772   1.946
  -2.736   0.462   1.946
  -2.772   0.147   1.946
  -2.772  -0.171   1.946
  -2.736  -0.486   1.946
  -2.664  -0.796   1.946
  -2.557  -1.095   1.946
  -2.417  -1.380   1.946
   2.160  -1.773   1.946
   2.347  -1.516   1.946
   2.503  -1.240   1.946
   2.994  -0.902   1.150
   3.119  -0.609   1.150
   3.195  -0.300   1.150
   3.430   0.018   0.916
   3.407   0.337   0.916
   2.871  -1.443   0.916
   3.067  -1.190   0.916
   3.223  -0.911   0.916
   3.337  -0.613   0.916
   3.407  -0.301   0.916
   3.612   0.018   0.660
   3.591   0.334   0.660
   3.528   0.644   0.660
   2.889  -1.686   0.660
   3.102  -1.451   0.660
   3.281  -1.190   0.660
   3.424  -0.908   0.660
   3.528  -0.608   0.660
   3.591  -0.298   0.660
   3.764   0.018   0.385
   3.744   0.334   0.385
   3.684   0.645   0.385
   3.587   0.947   0.385
   3.452   1.233   0.385
   3.282   1.501   0.385
   2.849  -1.926   0.385
   3.080  -1.709   0.385
   3.282  -1.465   0.385
   3.452  -1.197   0.385
   3.587  -0.911   0.385
   3.684  -0.609   0.385
   3.744  -0.298   0.385
   3.884   0.018   0.095
   3.865   0.337   0.095
   3.807   0.650   0.095
   3.712   0.955   0.095
   3.581   1.246   0.095
   3.416   1.519   0.095
   3.219   1.771   0.095
   2.742  -2.157   0.095
   2.994  -1.960   0.095
   3.219  -1.735   0.095
   3.416  -1.483   0.095
   3.581  -1.210   0.095
   3.712  -0.919   0.095
   3.807  -0.614   0.095
   3.865  -0.301   0.095
   3.971   0.018  -0.207
   3.952   0.335  -0.207
   3.897   0.648  -0.207
   3.806   0.952  -0.207
   3.680   1.243  -0.207
   3.522   1.518  -0.207
   3.332   1.773  -0.207
   2.871  -2.172  -0.207
   3.114  -1.968  -0.207
   3.332  -1.737  -0.207
   3.522  -1.482  -0.207
   3.680  -1.207  -0.207
   3.806  -0.916  -0.207
   3.897  -0.612  -0.207
   3.952  -0.299  -0.207
   4.023   0.018  -0.516
   4.005   0.335  -0.516
   3.951   0.648  -0.516
   3.862   0.953  -0.516
   3.738   1.246  -0.516
   3.582   1.522  -0.516
   3.395   1.779  -0.516
   3.180   2.013  -0.516
   2.678  -2.365  -0.516
   2.940  -2.185  -0.516
   3.180  -1.977  -0.516
   3.395  -1.743  -0.516
   3.582  -1.486  -0.516
   3.738  -1.210  -0.516
   3.862  -0.917  -0.516
   3.951  -0.612  -0.516
   4.005  -0.299  -0.516
   4.041   0.018  -0.830
   4.023   0.332  -0.830
   3.971   0.641  -0.830
   3.884   0.943  -0.830
   3.764   1.233  -0.830
   3.612   1.508  -0.830
   3.430   1.764  -0.830
   3.221   1.998  -0.830
   2.731  -2.353  -0.830
   2.987  -2.171  -0.830
   3.221  -1.962  -0.830
   3.430  -1.728  -0.830
   3.612  -1.472  -0.830
   3.764  -1.197  -0.830
   3.884  -0.907  -0.830
   3.971  -0.605  -0.830
   4.023  -0.296  -0.830
   4.023   0.018  -1.143
   4.005   0.335  -1.143
   3.951   0.648  -1.143
   3.862   0.953  -1.143
   3.738   1.246  -1.143
   3.582   1.522  -1.143
   3.395   1.779  -1.143
   3.180   2.013  -1.143
   2.397  -2.513  -1.143
   2.678  -2.365  -1.143
   2.940  -2.185  -1.143
   3.180  -1.977  -1.143
   3.395  -1.743  -1.143
   3.582  -1.486  -1.143
   3.738  -1.210  -1.143
   3.862  -0.917  -1.143
   3.951  -0.612  -1.143
   4.005  -0.299  -1.143
   3.971   0.018  -1.453
   3.952   0.335  -1.453
   3.897   0.648  -1.453
   3.806   0.952  -1.453
   3.680   1.243  -1.453
   3.522   1.518  -1.453
   3.332   1.773  -1.453
   3.114   2.004  -1.453
   2.322  -2.489  -1.453
   2.606  -2.346  -1.453
   2.871  -2.172  -1.453
   3.114  -1.968  -1.453
   3.332  -1.737  -1.453
   3.522  -1.482  -1.453
   3.680  -1.207  -1.453
   3.806  -0.916  -1.453
   3.897  -0.612  -1.453
   3.952  -0.299  -1.453
   3.884   0.018  -1.755
   3.865   0.337  -1.755
   3.807   0.650  -1.755
   3.712   0.955  -1.755
   3.581   1.246  -1.755
   3.416   1.519  -1.755
   3.219   1.771  -1.755
   2.994   1.996  -1.755
   1.873  -2.548  -1.755
   2.178  -2.453  -1.755
   2.469  -2.322  -1.755
   2.742  -2.157  -1.755
   2.994  -1.960  -1.755
   3.219  -1.735  -1.755
   3.416  -1.483  -1.755
   3.581  -1.210  -1.755
   3.712  -0.919  -1.755
   3.807  -0.614  -1.755
   3.865  -0.301  -1.755
   3.764   0.018  -2.045
   3.744   0.334  -2.045
   3.684   0.645  -2.045
   3.587   0.947  -2.045
   3.452   1.233  -2.045
   3.282   1.501  -2.045
   3.080   1.745  -2.045
   2.849   1.962  -2.045
   1.714  -2.460  -2.045
   2.021  -2.381  -2.045
   2.315  -2.265  -2.045
   2.593  -2.112  -2.045
   2.849  -1.926  -2.045
   3.080  -1.709  -2.045
   3.282  -1.465  -2.045
   3.452  -1.197  -2.045
   3.587  -0.911  -2.045
   3.684  -0.609  -2.045
   3.744  -0.298  -2.045
   3.612   0.018  -2.320
   3.591   0.334  -2.320
   3.528   0.644  -2.320
   3.424   0.944  -2.320
   3.281   1.226  -2.320
   3.102   1.487  -2.320
   2.889   1.722  -2.320
   2.647   1.927  -2.320
   1.478  -2.341  -2.320
   1.791  -2.288  -2.320
   2.093  -2.194  -2.320
   2.380  -2.061  -2.320
   2.647  -1.891  -2.320
   2.889  -1.686  -2.320
   3.102  -1.451  -2.320
   3.281  -1.190  -2.320
   3.424  -0.908  -2.320
   3.528  -0.608  -2.320
   3.591  -0.298  -2.320
   3.430   0.018  -2.576
   3.407   0.337  -2.576
   3.337   0.649  -2.576
   3.223   0.947  -2.576
   3.067   1.226  -2.576
   2.871   1.479  -2.576
   2.641   1.701  -2.576
   2.381   1.887  -2.576
   0.843  -2.135  -2.576
   1.161  -2.170  -2.576
   1.480  -2.158  -2.576
   1.795  -2.100  -2.576
   2.097  -1.997  -2.576
   2.381  -1.851  -2.576
   2.641  -1.665  -2.576
   2.871  -1.443  -2.576
   3.067  -1.190  -2.576
   3.223  -0.911  -2.576
   3.337  -0.613  -2.576
   3.407  -0.301  -2.576
   3.221   0.018  -2.810
   3.195   0.336  -2.810
   3.119   0.645  -2.810
   2.994   0.938  -2.810
   2.824   1.207  -2.810
   2.613   1.446  -2.810
   2.366   1.647  -2.810
   2.090   1.807  -2.810
   1.792   1.920  -2.810
   0.539  -1.833  -2.810
   0.845  -1.922  -2.810
   1.161  -1.960  -2.810
   1.480  -1.947  -2.810
   1.792  -1.884  -2.810
   2.090  -1.771  -2.810
   2.366  -1.611  -2.810
   2.613  -1.410  -2.810
   2.824  -1.171  -2.810
   2.994  -0.902  -2.810
   3.119  -0.609  -2.810
   3.195  -0.300  -2.810
   2.987   0.018  -3.019
   2.957   0.339  -3.019
   2.869   0.649  -3.019
   2.725   0.937  -3.019
   2.531   1.194  -3.019
   2.293   1.411  -3.019
   2.019   1.581  -3.019
   1.719   1.697  -3.019
   1.402   1.756  -3.019
   1.080   1.756  -3.019
   0.189  -1.375  -3.019
   0.463  -1.545  -3.019
   0.763  -1.661  -3.019
   1.080  -1.720  -3.019
   1.402  -1.720  -3.019
   1.719  -1.661  -3.019
   2.019  -1.545  -3.019
   2.293  -1.375  -3.019
   2.531  -1.158  -3.019
   2.725  -0.901  -3.019
   2.869  -0.613  -3.019
   2.957  -0.303  -3.019
   2.731   0.018  -3.201
   2.696   0.338  -3.201
   2.593   0.644  -3.201
   2.427   0.920  -3.201
   2.205   1.153  -3.201
   1.939   1.334  -3.201
   1.640   1.453  -3.201
   1.322   1.506  -3.201
   1.000   1.488  -3.201
   0.159  -1.006  -3.201
   0.405  -1.215  -3.201
   0.690  -1.366  -3.201
   1.000  -1.452  -3.201
   1.322  -1.470  -3.201
   1.640  -1.417  -3.201
   1.939  -1.298  -3.201
   2.205  -1.117  -3.201
   2.427  -0.884  -3.201
   2.593  -0.608  -3.201
   2.696  -0.302  -3.201
   2.456   0.018  -3.353
   2.414   0.332  -3.353
   2.293   0.625  -3.353
   2.100   0.877  -3.353
   1.848   1.070  -3.353
   1.555   1.191  -3.353
   1.241   1.233  -3.353
   0.927   1.191  -3.353
   0.189  -0.589  -3.353
   0.382  -0.841  -3.353
   0.634  -1.034  -3.353
   0.927  -1.155  -3.353
   1.241  -1.197  -3.353
   1.555  -1.155  -3.353
   1.848  -1.034  -3.353
   2.100  -0.841  -3.353
   2.293  -0.589  -3.353
   2.414  -0.296  -3.353
   2.166   0.018  -3.473
   2.110   0.334  -3.473
   1.949   0.612  -3.473
   1.703   0.819  -3.473
   1.402   0.929  -3.473
   1.080   0.929  -3.473
   0.779   0.819  -3.473
   0.372  -0.298  -3.473
   0.533  -0.576  -3.473
   0.779  -0.783  -3.473
   1.080  -0.893  -3.473
   1.402  -0.893  -3.473
   1.703  -0.783  -3.473
   1.949  -0.576  -3.473
   2.110  -0.298  -3.473
   1.864   0.018  -3.560
   1.781   0.330  -3.560
   1.553   0.558  -3.560
   1.241   0.641  -3.560
   0.929   0.558  -3.560
   0.701   0.330  -3.560
   0.618   0.018  -3.560
   0.701  -0.294  -3.560
   0.929  -0.522  -3.560
   1.241  -0.605  -3.560
   1.553  -0.522  -3.560
   1.781  -0.294  -3.560
   1.555   0.018  -3.612
   1.398   0.290  -3.612
   1.084   0.290  -3.612
   0.927   0.018  -3.612
   1.084  -0.254  -3.612
   1.398  -0.254  -3.612
   1.241   0.018  -3.630
  -0.576  -2.470   2.856
  -0.267  -2.582   2.856
   0.063  -2.582   2.856
  -0.983  -2.530   2.733
  -0.725  -2.727   2.733
  -0.424  -2.852   2.733
  -0.102  -2.894   2.733
   0.220  -2.852   2.733
   0.521  -2.727   2.733
   0.779  -2.530   2.733
  -1.410  -2.436   2.577
  -1.211  -2.699   2.577
  -0.959  -2.913   2.577
  -0.667  -3.067   2.577
  -0.349  -3.156   2.577
  -0.019  -3.174   2.577
   0.306  -3.120   2.577
   0.613  -2.998   2.577
   0.887  -2.813   2.577
   1.114  -2.573   2.577
  -1.861  -1.978   2.391
  -1.771  -2.295   2.391
  -1.623  -2.591   2.391
  -1.424  -2.855   2.391
  -1.180  -3.077   2.391
  -0.900  -3.251   2.391
  -0.592  -3.370   2.391
  -0.267  -3.431   2.391
   0.063  -3.431   2.391
   0.388  -3.370   2.391
   0.696  -3.251   2.391
   0.976  -3.077   2.391
   1.220  -2.855   2.391
   1.419  -2.591   2.391
   1.567  -2.295   2.391
  -2.125  -1.812   2.176
  -2.072  -2.135   2.176
  -1.969  -2.444   2.176
  -1.817  -2.734   2.176
  -1.621  -2.995   2.176
  -1.385  -3.221   2.176
  -1.117  -3.407   2.176
  -0.822  -3.547   2.176
  -0.508  -3.637   2.176
  -0.184  -3.677   2.176
   0.143  -3.664   2.176
   0.463  -3.598   2.176
   0.768  -3.482   2.176
   1.051  -3.319   2.176
   1.304  -3.113   2.176
   1.520  -2.868   2.176
   1.695  -2.592   2.176
   1.823  -2.292   2.176
  -2.340  -1.813   1.936
  -2.292  -2.137   1.936
  -2.198  -2.451   1.936
  -2.059  -2.747   1.936
  -1.878  -3.020   1.936
  -1.659  -3.264   1.936
  -1.408  -3.474   1.936
  -1.128  -3.645   1.936
  -0.827  -3.773   1.936
  -0.510  -3.856   1.936
  -0.184  -3.891   1.936
   0.143  -3.879   1.936
   0.466  -3.820   1.936
   0.776  -3.714   1.936
   1.067  -3.564   1.936
   1.333  -3.374   1.936
   1.569  -3.146   1.936
   1.769  -2.887   1.936
   1.930  -2.601   1.936
   2.047  -2.295   1.936
   2.118  -1.976   1.936
   2.328  -1.649   1.674
  -2.527  -1.487   1.674
  -2.527  -1.811   1.674
  -2.483  -2.133   1.674
  -2.398  -2.446   1.674
  -2.271  -2.745   1.674
  -2.105  -3.024   1.674
  -1.904  -3.279   1.674
  -1.671  -3.505   1.674
  -1.410  -3.697   1.674
  -1.125  -3.853   1.674
  -0.822  -3.970   1.674
  -0.506  -4.045   1.674
  -0.183  -4.078   1.674
   0.141  -4.067   1.674
   0.461  -4.013   1.674
   0.771  -3.917   1.674
   1.066  -3.780   1.674
   1.339  -3.605   1.674
   1.587  -3.396   1.674
   1.805  -3.155   1.674
   1.989  -2.887   1.674
   2.135  -2.598   1.674
   2.242  -2.291   1.674
   2.306  -1.973   1.674
  -2.667  -1.973   1.392
  -2.607  -2.292   1.392
  -2.506  -2.601   1.392
  -2.368  -2.895   1.392
  -2.194  -3.169   1.392
  -1.987  -3.419   1.392
  -1.750  -3.641   1.392
  -1.488  -3.832   1.392
  -1.203  -3.989   1.392
  -0.901  -4.108   1.392
  -0.587  -4.189   1.392
  -0.264  -4.230   1.392
   0.060  -4.230   1.392
   0.383  -4.189   1.392
   0.697  -4.108   1.392
   0.999  -3.989   1.392
   1.284  -3.832   1.392
   1.546  -3.641   1.392
   1.783  -3.419   1.392
   1.990  -3.169   1.392
   2.164  -2.895   1.392
   2.302  -2.601   1.392
   2.403  -2.292   1.392
   2.463  -1.973   1.392
  -2.791  -1.976   1.095
  -2.732  -2.297   1.095
  -2.635  -2.610   1.095
  -2.501  -2.908   1.095
  -2.331  -3.188   1.095
  -2.130  -3.445   1.095
  -1.898  -3.677   1.095
  -1.641  -3.878   1.095
  -1.361  -4.048   1.095
  -1.063  -4.182   1.095
  -0.750  -4.279   1.095
  -0.429  -4.338   1.095
  -0.102  -4.358   1.095
   0.225  -4.338   1.095
   0.546  -4.279   1.095
   0.859  -4.182   1.095
   1.157  -4.048   1.095
   1.437  -3.878   1.095
   1.694  -3.677   1.095
   1.926  -3.445   1.095
   2.127  -3.188   1.095
   2.297  -2.908   1.095
   2.431  -2.610   1.095
   2.528  -2.297   1.095
   2.587  -1.976   1.095
  -2.825  -2.294   0.786
  -2.731  -2.606   0.786
  -2.602  -2.905   0.786
  -2.440  -3.187   0.786
  -2.245  -3.448   0.786
  -2.022  -3.684   0.786
  -1.773  -3.893   0.786
  -1.501  -4.072   0.786
  -1.210  -4.218   0.786
  -0.904  -4.329   0.786
  -0.588  -4.405   0.786
  -0.265  -4.442   0.786
   0.061  -4.442   0.786
   0.384  -4.405   0.786
   0.700  -4.329   0.786
   1.006  -4.218   0.786
   1.297  -4.072   0.786
   1.569  -3.893   0.786
   1.818  -3.684   0.786
   2.041  -3.448   0.786
   2.236  -3.187   0.786
   2.398  -2.905   0.786
   2.527  -2.606   0.786
   2.621  -2.294   0.786
   2.677  -1.974   0.786
  -2.838  -2.452   0.468
  -2.729  -2.759   0.468
  -2.585  -3.051   0.468
  -2.409  -3.325   0.468
  -2.203  -3.577   0.468
  -1.970  -3.804   0.468
  -1.712  -4.003   0.468
  -1.433  -4.171   0.468
  -1.137  -4.307   0.468
  -0.827  -4.407   0.468
  -0.508  -4.472   0.468
  -0.183  -4.500   0.468
   0.142  -4.490   0.468
   0.464  -4.444   0.468
   0.779  -4.361   0.468
   1.083  -4.243   0.468
   1.371  -4.091   0.468
   1.640  -3.907   0.468
   1.886  -3.694   0.468
   2.106  -3.454   0.468
   2.297  -3.191   0.468
   2.457  -2.907   0.468
   2.584  -2.607   0.468
   2.676  -2.295   0.468
   2.731  -1.974   0.468
  -2.811  -2.597   0.147
  -2.688  -2.894   0.147
  -2.532  -3.176   0.147
  -2.346  -3.438   0.147
  -2.131  -3.678   0.147
  -1.891  -3.893   0.147
  -1.629  -4.079   0.147
  -1.347  -4.235   0.147
  -1.050  -4.358   0.147
  -0.741  -4.447   0.147
  -0.423  -4.501   0.147
  -0.102  -4.519   0.147
   0.219  -4.501   0.147
   0.537  -4.447   0.147
   0.846  -4.358   0.147
   1.143  -4.235   0.147
   1.425  -4.079   0.147
   1.687  -3.893   0.147
   1.927  -3.678   0.147
   2.142  -3.438   0.147
   2.328  -3.176   0.147
   2.484  -2.894   0.147
   2.607  -2.597   0.147
   2.696  -2.288   0.147
  -2.729  -2.759  -0.174
  -2.585  -3.051  -0.174
  -2.409  -3.325  -0.174
  -2.203  -3.577  -0.174
  -1.970  -3.804  -0.174
  -1.712  -4.003  -0.174
  -1.433  -4.171  -0.174
  -1.137  -4.307  -0.174
  -0.827  -4.407  -0.174
  -0.508  -4.472  -0.174
  -0.183  -4.500  -0.174
   0.142  -4.490  -0.174
   0.464  -4.444  -0.174
   0.779  -4.361  -0.174
   1.083  -4.243  -0.174
   1.371  -4.091  -0.174
   1.640  -3.907  -0.174
   1.886  -3.694  -0.174
   2.106  -3.454  -0.174
   2.297  -3.191  -0.174
   2.457  -2.907  -0.174
   2.584  -2.607  -0.174
  -2.602  -2.905  -0.492
  -2.440  -3.187  -0.492
  -2.245  -3.448  -0.492
  -2.022  -3.684  -0.492
  -1.773  -3.893  -0.492
  -1.501  -4.072  -0.492
  -1.210  -4.218  -0.492
  -0.904  -4.329  -0.492
  -0.588  -4.405  -0.492
  -0.265  -4.442  -0.492
   0.061  -4.442  -0.492
   0.384  -4.405  -0.492
   0.700  -4.330  -0.492
   1.006  -4.218  -0.492
   1.297  -4.072  -0.492
   1.569  -3.893  -0.492
   1.818  -3.684  -0.492
   2.041  -3.448  -0.492
   2.236  -3.187  -0.492
   2.398  -2.905  -0.492
   2.527  -2.606  -0.492
  -2.501  -2.908  -0.801
  -2.331  -3.188  -0.801
  -2.130  -3.445  -0.801
  -1.898  -3.677  -0.801
  -1.641  -3.878  -0.801
  -1.361  -4.048  -0.801
  -1.063  -4.182  -0.801
  -0.750  -4.279  -0.801
  -0.429  -4.338  -0.801
  -0.102  -4.358  -0.801
   0.225  -4.338  -0.801
   0.546  -4.279  -0.801
   0.859  -4.182  -0.801
   1.157  -4.048  -0.801
   1.437  -3.878  -0.801
   1.694  -3.677  -0.801
   1.926  -3.445  -0.801
   2.127  -3.188  -0.801
   2.297  -2.908  -0.801
   2.431  -2.610  -0.801
  -2.368  -2.895  -1.098
  -2.194  -3.169  -1.098
  -1.987  -3.419  -1.098
  -1.750  -3.641  -1.098
  -1.488  -3.832  -1.098
  -1.203  -3.989  -1.098
  -0.901  -4.108  -1.098
  -0.587  -4.189  -1.098
  -0.264  -4.230  -1.098
   0.060  -4.230  -1.098
   0.383  -4.189  -1.098
   0.697  -4.108  -1.098
   0.999  -3.989  -1.098
   1.284  -3.832  -1.098
   1.546  -3.641  -1.098
   1.783  -3.419  -1.098
   1.990  -3.169  -1.098
   2.164  -2.895  -1.098
   2.302  -2.601  -1.098
  -2.271  -2.745  -1.380
  -2.105  -3.024  -1.380
  -1.904  -3.279  -1.380
  -1.671  -3.505  -1.380
  -1.410  -3.697  -1.380
  -1.125  -3.853  -1.380
  -0.822  -3.970  -1.380
  -0.506  -4.045  -1.380
  -0.183  -4.078  -1.380
   0.141  -4.067  -1.380
   0.461  -4.013  -1.380
   0.771  -3.917  -1.380
   1.066  -3.780  -1.380
   1.339  -3.605  -1.380
   1.587  -3.396  -1.380
   1.805  -3.155  -1.380
   1.989  -2.887  -1.380
   2.135  -2.598  -1.380
  -2.059  -2.747  -1.642
  -1.878  -3.020  -1.642
  -1.659  -3.264  -1.642
  -1.408  -3.474  -1.642
  -1.128  -3.645  -1.642
  -0.827  -3.773  -1.642
  -0.510  -3.856  -1.642
  -0.184  -3.891  -1.642
   0.143  -3.879  -1.642
   0.466  -3.820  -1.642
   0.776  -3.714  -1.642
   1.067  -3.564  -1.642
   1.333  -3.374  -1.642
   1.569  -3.146  -1.642
   1.769  -2.887  -1.642
   1.930  -2.601  -1.642
  -1.817  -2.734  -1.882
  -1.621  -2.995  -1.882
  -1.385  -3.221  -1.882
  -1.117  -3.407  -1.882
  -0.822  -3.547  -1.882
  -0.508  -3.637  -1.882
  -0.184  -3.677  -1.882
   0.143  -3.664  -1.882
   0.463  -3.598  -1.882
   0.768  -3.482  -1.882
   1.051  -3.319  -1.882
   1.304  -3.113  -1.882
   1.520  -2.868  -1.882
   1.695  -2.592  -1.882
  -1.623  -2.591  -2.097
  -1.424  -2.855  -2.097
  -1.180  -3.077  -2.097
  -0.900  -3.251  -2.097
  -0.592  -3.370  -2.097
  -0.267  -3.431  -2.097
   0.063  -3.431  -2.097
   0.388  -3.370  -2.097
   0.696  -3.251  -2.097
   0.976  -3.077  -2.097
   1.220  -2.855  -2.097
   1.419  -2.591  -2.097
  -1.410  -2.436  -2.283
  -1.211  -2.699  -2.283
  -0.959  -2.913  -2.283
  -0.667  -3.067  -2.283
  -0.349  -3.156  -2.283
  -0.019  -3.174  -2.283
   0.306  -3.120  -2.283
   0.613  -2.998  -2.283
   0.887  -2.813  -2.283
   1.114  -2.573  -2.283
  -1.180  -2.272  -2.439
  -0.983  -2.530  -2.439
  -0.725  -2.727  -2.439
  -0.424  -2.852  -2.439
  -0.102  -2.894  -2.439
   0.220  -2.852  -2.439
   0.521  -2.727  -2.439
   0.779  -2.530  -2.439
   0.976  -2.272  -2.439
  -0.828  -2.258  -2.562
  -0.576  -2.470  -2.562
  -0.267  -2.583  -2.562
   0.063  -2.583  -2.562
   0.372  -2.470  -2.562
   0.624  -2.258  -2.562
  -0.655  -1.968  -2.651
  -0.421  -2.202  -2.651
  -0.102  -2.288  -2.651
   0.217  -2.202  -2.651
   0.451  -1.968  -2.651
  -0.263  -1.927  -2.705
   0.059  -1.927  -2.705
  -2.779   0.646   1.742
  -2.915   0.354   1.742
  -2.984   0.039   1.742
  -2.984  -0.283   1.742
  -2.915  -0.598   1.742
  -2.779  -0.890   1.742
  -2.585  -1.146   1.742
  -3.131   0.509   1.560
  -3.219   0.199   1.560
  -3.249  -0.122   1.560
  -3.219  -0.443   1.560
  -3.131  -0.753   1.560
  -2.987  -1.041   1.560
  -2.793  -1.298   1.560
  -3.476   0.037   1.351
  -3.476  -0.281   1.351
  -3.425  -0.596   1.351
  -3.324  -0.898   1.351
  -3.176  -1.180   1.351
  -2.985  -1.435   1.351
  -2.755  -1.656   1.351
  -3.686  -0.282   1.117
  -3.640  -0.598   1.117
  -3.548  -0.904   1.117
  -3.412  -1.193   1.117
  -3.236  -1.460   1.117
  -3.022  -1.698   1.117
  -3.826  -0.594   0.861
  -3.743  -0.900   0.861
  -3.619  -1.191   0.861
  -3.458  -1.464   0.861
  -3.261  -1.712   0.861
  -3.034  -1.932   0.861
  -3.946  -0.749   0.586
  -3.849  -1.051   0.586
  -3.714  -1.337   0.586
  -3.544  -1.605   0.586
  -3.342  -1.849   0.586
  -3.111  -2.066   0.586
  -3.974  -1.059   0.296
  -3.843  -1.350   0.296
  -3.678  -1.623   0.296
  -3.481  -1.875   0.296
  -3.256  -2.100   0.296
  -3.004  -2.297   0.296
  -3.942  -1.347  -0.006
  -3.784  -1.622  -0.006
  -3.594  -1.877  -0.006
  -3.376  -2.108  -0.006
  -3.133  -2.312  -0.006
  -2.868  -2.486  -0.006
  -3.754  -1.757  -0.315
  -3.553  -2.003  -0.315
  -3.325  -2.225  -0.315
  -3.074  -2.419  -0.315
  -2.801  -2.583  -0.315
  -3.692  -1.868  -0.629
  -3.483  -2.102  -0.629
  -3.249  -2.311  -0.629
  -2.993  -2.493  -0.629
  -2.718  -2.645  -0.629
  -3.325  -2.225  -0.942
  -3.074  -2.419  -0.942
  -2.801  -2.583  -0.942
  -3.133  -2.312  -1.252
  -2.868  -2.486  -1.252
  -2.584  -2.629  -1.252
  -3.004  -2.297  -1.554
  -2.731  -2.462  -1.554
  -2.440  -2.593  -1.554
  -2.855  -2.252  -1.844
  -2.577  -2.405  -1.844
  -2.283  -2.521  -1.844
  -1.976  -2.600  -1.844
  -2.501  -2.273  -2.119
  -2.205  -2.386  -2.119
  -1.897  -2.460  -2.119
  -2.210  -2.194  -2.375
  -1.901  -2.275  -2.375
  -1.583  -2.310  -2.375
  -1.899  -2.062  -2.609
  -1.583  -2.100  -2.609
  -1.264  -2.087  -2.609
  -0.952  -2.024  -2.609
  -1.664  -1.860  -2.818
  -1.342  -1.860  -2.818
  -1.025  -1.801  -2.818
  -0.725  -1.685  -2.818
  -0.805  -1.438  -3.000
  -3.451   0.508   1.416
  -3.715   0.329   1.248
  -4.052   0.501   1.047
  -3.954   0.158   1.047
  -3.795  -0.161   1.047
  -4.337   0.680   0.815
  -4.280   0.331   0.815
  -4.169  -0.003   0.815
  -4.005  -0.316   0.815
  -4.569   0.679   0.556
  -4.518   0.329   0.556
  -4.416  -0.010   0.556
  -4.266  -0.330   0.556
  -4.070  -0.625   0.556
  -4.771   0.681   0.272
  -4.724   0.333   0.272
  -4.632  -0.005   0.272
  -4.495  -0.328   0.272
  -4.316  -0.630   0.272
  -4.099  -0.905   0.272
  -4.945   0.856  -0.032
  -4.923   0.506  -0.032
  -5.057   1.209  -0.353
  -5.093   1.553  -0.687
  -5.108   1.724  -1.030
  -5.078   1.880  -1.377
  -4.834   2.371  -1.724
  -4.990   2.055  -1.724
  -1.976   3.873  -2.067
  -4.467   2.799  -2.067
  -4.677   2.517  -2.067
  -4.853   2.212  -2.067
  -2.152   3.782  -2.401
  -2.505   3.761  -2.401
  -2.852   3.697  -2.401
  -3.190   3.592  -2.401
  -3.512   3.447  -2.401
  -3.814   3.264  -2.401
  -4.092   3.046  -2.401
  -4.342   2.796  -2.401
  -4.560   2.518  -2.401
  -2.675   3.600  -2.722
  -3.015   3.512  -2.722
  -3.341   3.383  -2.722
  -3.649   3.214  -2.722
  -3.932   3.008  -2.722
  -4.188   2.768  -2.722
  -4.412   2.498  -2.722
  -1.977  -1.931  -2.722
  -2.930   3.363  -3.026
  -3.257   3.237  -3.026
  -3.564   3.068  -3.026
  -3.847   2.860  -3.026
  -4.099   2.617  -3.026
  -4.316   2.342  -3.026
  -1.889  -1.756  -3.026
  -1.544  -1.697  -3.026
  -1.209  -1.593  -3.026
  -0.891  -1.446  -3.026
  -0.595  -1.257  -3.026
  -2.935   3.150  -3.310
  -3.260   3.011  -3.310
  -3.562   2.827  -3.310
  -3.834   2.601  -3.310
  -4.070   2.337  -3.310
  -1.887  -1.553  -3.310
  -1.539  -1.489  -3.310
  -1.204  -1.375  -3.310
  -0.889  -1.213  -3.310
  -0.602  -1.007  -3.310
  -3.248   2.754  -3.569
  -3.538   2.554  -3.569
  -3.793   2.310  -3.569
  -1.888  -1.320  -3.569
  -1.542  -1.249  -3.569
  -1.212  -1.124  -3.569
  -0.907  -0.948  -3.569
  -3.317   2.398  -3.801
  -3.580   2.158  -3.801
  -1.974  -1.069  -3.801
  -1.623  -1.003  -3.801
  -1.290  -0.874  -3.801
  -3.349   1.990  -4.002
  -3.565   1.706  -4.002
  -2.063  -0.791  -4.002
  -1.711  -0.733  -4.002
  -1.379  -0.601  -4.002
  -3.103   1.807  -4.170
  -3.317   1.529  -4.170
  -2.152  -0.489  -4.170
  -1.804  -0.443  -4.170
  -3.114   1.206  -4.303
  -2.330  -0.152  -4.303
  -1.974  -0.152  -4.303
  -2.842   0.856  -4.399
  -2.497   0.259  -4.399
  -2.994   1.967   1.774
  -3.072   1.678   1.774
  -2.994   1.389   1.774
  -2.782   1.177   1.774
  -2.922   2.422   1.693
  -3.151   2.230   1.693
  -3.300   1.972   1.693
  -3.352   1.678   1.693
  -3.300   1.384   1.693
  -3.151   1.126   1.693
  -2.922   0.934   1.693
  -2.785   2.768   1.582
  -3.057   2.655   1.582
  -3.291   2.476   1.582
  -3.470   2.242   1.582
  -3.583   1.970   1.582
  -3.621   1.678   1.582
  -3.583   1.386   1.582
  -3.470   1.114   1.582
  -3.291   0.880   1.582
  -2.418   3.059   1.440
  -2.717   3.043   1.440
  -3.005   2.963   1.440
  -3.269   2.823   1.440
  -3.497   2.629   1.440
  -3.678   2.391   1.440
  -3.804   2.120   1.440
  -3.868   1.828   1.440
  -3.868   1.528   1.440
  -3.804   1.236   1.440
  -3.678   0.965   1.440
  -3.497   0.727   1.440
  -2.343   3.292   1.272
  -2.643   3.292   1.272
  -2.937   3.237   1.272
  -3.216   3.129   1.272
  -3.470   2.972   1.272
  -3.691   2.770   1.272
  -3.871   2.531   1.272
  -4.005   2.264   1.272
  -4.086   1.976   1.272
  -4.114   1.678   1.272
  -4.086   1.380   1.272
  -4.005   1.092   1.272
  -3.871   0.825   1.272
  -2.271   3.503   1.077
  -2.567   3.515   1.077
  -2.861   3.479   1.077
  -3.145   3.397   1.077
  -3.412   3.270   1.077
  -3.656   3.102   1.077
  -3.869   2.897   1.077
  -4.047   2.661   1.077
  -4.184   2.399   1.077
  -4.278   2.118   1.077
  -4.326   1.826   1.077
  -4.326   1.530   1.077
  -4.278   1.238   1.077
  -4.184   0.957   1.077
  -4.047   0.695   1.077
  -2.271   3.699   0.860
  -2.567   3.709   0.860
  -2.862   3.677   0.860
  -3.149   3.602   0.860
  -3.422   3.486   0.860
  -3.676   3.331   0.860
  -3.904   3.141   0.860
  -4.102   2.920   0.860
  -4.266   2.673   0.860
  -4.392   2.404   0.860
  -4.477   2.120   0.860
  -4.520   1.826   0.860
  -4.520   1.530   0.860
  -4.477   1.236   0.860
  -4.392   0.952   0.860
  -1.983   3.820   0.622
  -2.273   3.868   0.622
  -2.567   3.878   0.622
  -2.859   3.849   0.622
  -3.145   3.781   0.622
  -3.420   3.675   0.622
  -3.678   3.534   0.622
  -3.914   3.359   0.622
  -4.126   3.155   0.622
  -4.308   2.924   0.622
  -4.458   2.671   0.622
  -4.573   2.400   0.622
  -4.650   2.117   0.622
  -4.690   1.825   0.622
  -4.690   1.531   0.622
  -4.650   1.240   0.622
  -4.573   0.956   0.622
  -2.054   3.979   0.367
  -2.346   4.016   0.367
  -2.640   4.016   0.367
  -2.932   3.979   0.367
  -3.217   3.906   0.367
  -3.490   3.798   0.367
  -3.748   3.656   0.367
  -3.986   3.483   0.367
  -4.201   3.282   0.367
  -4.388   3.055   0.367
  -4.546   2.807   0.367
  -4.671   2.540   0.367
  -4.762   2.261   0.367
  -4.817   1.972   0.367
  -4.836   1.678   0.367
  -4.817   1.384   0.367
  -4.762   1.095   0.367
  -1.906   4.061   0.098
  -2.197   4.114   0.098
  -2.493   4.132   0.098
  -2.789   4.114   0.098
  -3.080   4.061   0.098
  -3.363   3.973   0.098
  -3.633   3.851   0.098
  -3.887   3.698   0.098
  -4.120   3.515   0.098
  -4.330   3.305   0.098
  -4.513   3.072   0.098
  -4.666   2.818   0.098
  -4.788   2.548   0.098
  -4.876   2.265   0.098
  -4.929   1.974   0.098
  -4.947   1.678   0.098
  -4.929   1.382   0.098
  -4.876   1.091   0.098
  -1.766   4.106  -0.182
  -2.053   4.174  -0.182
  -2.346   4.209  -0.182
  -2.640   4.209  -0.182
  -2.933   4.174  -0.182
  -3.220   4.106  -0.182
  -3.497   4.006  -0.182
  -3.760   3.873  -0.182
  -4.007   3.711  -0.182
  -4.232   3.522  -0.182
  -4.435   3.307  -0.182
  -4.611   3.071  -0.182
  -4.758   2.816  -0.182
  -4.875   2.545  -0.182
  -4.959   2.263  -0.182
  -5.011   1.972  -0.182
  -5.028   1.678  -0.182
  -5.011   1.384  -0.182
  -1.695   4.135  -0.470
  -1.980   4.210  -0.470
  -2.272   4.252  -0.470