 $system timlim=999888777
         mwords=100 $end
 $contrl exetyp=run
         runtyp=energy scftyp=rhf
         icharg=-1 mult=1 units=angs coord=unique
         maxit=50 ispher=1 qmttol=1d-6 icut=12 itol=22 $end
 $scf    dirscf=.t. diis=.t. soscf=.f.
         fdiff=.f. conv=1d-6
         npreo(1)=0,-1,1,9999 $end
 $elpot  iepot=1 where=points $end
 $basis  gbasis=n311 ngauss=6
         ndfunc=1 npfunc=1 diffsp=.t. diffs=.t. $end
 $DATA
TS1a_hfd_irc200_all_revmov.pdb
C1
P     15.0     0.00000   0.00200  -0.00100 
O      8.0     0.00400  -0.00800   1.63300 
O      8.0     1.24200   0.01000  -0.82800 
F      9.0    -0.10500  -1.64900   0.15400 
O      8.0    -1.50300  -0.12200  -0.62900 
C      6.0    -2.15200   0.85600  -1.37700 
H      1.0    -2.49100   1.67900  -0.76100 
H      1.0    -1.52000   1.25300  -2.16300 
H      1.0    -3.00900   0.36900  -1.83300 
C      6.0     0.39700   1.05100   2.44800 
H      1.0     0.50800   0.63700   3.44700 
H      1.0     1.34800   1.47100   2.14000 
H      1.0    -0.33900   1.84300   2.46700 
O      8.0    -0.15700   1.73600   0.01600 
H      1.0     0.57900   2.04400  -0.49000 
 $END
 $POINTS
ANGS 3047
   2.605  -1.430   1.431
   2.764  -1.093   1.431
   2.880  -0.737   1.431
   2.758  -1.446   1.089
  -0.284  -1.731  -2.795
   0.095  -1.751  -2.795
  -0.371  -1.381  -2.974
   0.000  -1.430  -2.974
  -0.189  -1.071  -3.116
  -1.817  -0.784   3.613
  -1.669  -1.066   3.613
  -1.478  -1.321   3.613
  -1.248  -1.542   3.613
  -0.986  -1.723   3.613
  -0.698  -1.859   3.613
  -0.392  -1.948   3.613
  -0.076  -1.986   3.613
   0.243  -1.973   3.613
  -2.133  -0.484   3.379
  -2.041  -0.790   3.379
  -1.905  -1.079   3.379
  -1.729  -1.346   3.379
  -1.515  -1.584   3.379
  -1.270  -1.788   3.379
  -0.997  -1.955   3.379
  -0.703  -2.080   3.379
  -0.394  -2.161   3.379
  -0.076  -2.196   3.379
   0.243  -2.184   3.379
   0.558  -2.126   3.379
   0.860  -2.023   3.379
  -2.319  -0.480   3.123
  -2.236  -0.786   3.123
  -2.112  -1.077   3.123
  -1.951  -1.350   3.123
  -1.754  -1.598   3.123
  -1.527  -1.818   3.123
  -1.272  -2.006   3.123
  -0.994  -2.159   3.123
  -0.698  -2.272   3.123
  -0.390  -2.346   3.123
  -0.075  -2.378   3.123
   0.241  -2.367   3.123
   0.554  -2.314   3.123
   0.856  -2.220   3.123
   1.143  -2.087   3.123
   1.410  -1.917   3.123
   1.652  -1.712   3.123
  -2.519  -0.008   2.848
  -2.499  -0.324   2.848
  -2.439  -0.635   2.848
  -2.342  -0.937   2.848
  -2.207  -1.223   2.848
  -2.037  -1.491   2.848
  -1.835  -1.735   2.848
  -1.604  -1.952   2.848
  -1.348  -2.138   2.848
  -1.070  -2.291   2.848
  -0.776  -2.407   2.848
   0.477  -2.486   2.848
   0.784  -2.407   2.848
   1.078  -2.291   2.848
   1.356  -2.138   2.848
   1.612  -1.952   2.848
   1.843  -1.735   2.848
  -2.620   0.311   2.558
  -2.639  -0.008   2.558
  -2.620  -0.327   2.558
  -2.562  -0.640   2.558
  -2.467  -0.945   2.558
  -2.336  -1.236   2.558
  -2.171  -1.509   2.558
  -1.974  -1.761   2.558
  -1.749  -1.986   2.558
   1.505  -2.183   2.558
   1.757  -1.986   2.558
   1.982  -1.761   2.558
   2.179  -1.509   2.558
  -2.707   0.309   2.256
  -2.726  -0.008   2.256
  -2.707  -0.325   2.256
  -2.652  -0.638   2.256
  -2.561  -0.942   2.256
  -2.435  -1.233   2.256
  -2.277  -1.508   2.256
  -2.087  -1.763   2.256
   1.877  -1.994   2.256
   2.095  -1.763   2.256
   2.285  -1.508   2.256
  -2.666   0.776   1.947
  -2.738   0.466   1.947
  -2.774   0.151   1.947
  -2.774  -0.167   1.947
  -2.738  -0.482   1.947
  -2.666  -0.792   1.947
  -2.559  -1.091   1.947
  -2.419  -1.376   1.947
   2.158  -1.769   1.947
   2.345  -1.512   1.947
   2.501  -1.236   1.947
   2.995  -0.910   1.152
   3.120  -0.617   1.152
   3.196  -0.308   1.152
   3.431   0.010   0.918
   3.408   0.329   0.918
   2.872  -1.451   0.918
   3.068  -1.198   0.918
   3.224  -0.919   0.918
   3.338  -0.621   0.918
   3.408  -0.309   0.918
   3.613   0.010   0.662
   3.592   0.326   0.662
   3.529   0.636   0.662
   3.425   0.936   0.662
   2.890  -1.694   0.662
   3.103  -1.459   0.662
   3.282  -1.198   0.662
   3.425  -0.916   0.662
   3.529  -0.616   0.662
   3.592  -0.306   0.662
   3.765   0.010   0.387
   3.745   0.326   0.387
   3.685   0.637   0.387
   3.588   0.939   0.387
   3.453   1.225   0.387
   3.283   1.493   0.387
   2.850  -1.934   0.387
   3.081  -1.717   0.387
   3.283  -1.473   0.387
   3.453  -1.205   0.387
   3.588  -0.919   0.387
   3.685  -0.617   0.387
   3.745  -0.306   0.387
   3.885   0.010   0.097
   3.866   0.329   0.097
   3.808   0.642   0.097
   3.713   0.947   0.097
   3.582   1.238   0.097
   3.417   1.511   0.097
   3.220   1.763   0.097
   2.743  -2.165   0.097
   2.995  -1.968   0.097
   3.220  -1.743   0.097
   3.417  -1.491   0.097
   3.582  -1.218   0.097
   3.713  -0.927   0.097
   3.808  -0.622   0.097
   3.866  -0.309   0.097
   3.972   0.010  -0.205
   3.953   0.327  -0.205
   3.898   0.640  -0.205
   3.807   0.944  -0.205
   3.681   1.235  -0.205
   3.523   1.510  -0.205
   3.333   1.765  -0.205
   2.872  -2.180  -0.205
   3.115  -1.976  -0.205
   3.333  -1.745  -0.205
   3.523  -1.490  -0.205
   3.681  -1.215  -0.205
   3.807  -0.924  -0.205
   3.898  -0.620  -0.205
   3.953  -0.307  -0.205
   4.024   0.010  -0.514
   4.006   0.327  -0.514
   3.952   0.640  -0.514
   3.863   0.945  -0.514
   3.739   1.238  -0.514
   3.583   1.514  -0.514
   3.396   1.771  -0.514
   3.181   2.005  -0.514
   2.679  -2.373  -0.514
   2.941  -2.193  -0.514
   3.181  -1.985  -0.514
   3.396  -1.751  -0.514
   3.583  -1.494  -0.514
   3.739  -1.218  -0.514
   3.863  -0.925  -0.514
   3.952  -0.620  -0.514
   4.006  -0.307  -0.514
   4.042   0.010  -0.828
   4.024   0.324  -0.828
   3.972   0.633  -0.828
   3.885   0.935  -0.828
   3.765   1.225  -0.828
   3.613   1.500  -0.828
   3.431   1.756  -0.828
   3.222   1.990  -0.828
   2.457  -2.513  -0.828
   2.732  -2.361  -0.828
   2.988  -2.179  -0.828
   3.222  -1.970  -0.828
   3.431  -1.736  -0.828
   3.613  -1.480  -0.828
   3.765  -1.205  -0.828
   3.885  -0.915  -0.828
   3.972  -0.613  -0.828
   4.024  -0.304  -0.828
   4.024   0.010  -1.141
   4.006   0.327  -1.141
   3.952   0.640  -1.141
   3.863   0.945  -1.141
   3.739   1.238  -1.141
   3.583   1.514  -1.141
   3.396   1.771  -1.141
   3.181   2.005  -1.141
   2.398  -2.521  -1.141
   2.679  -2.373  -1.141
   2.941  -2.193  -1.141
   3.181  -1.985  -1.141
   3.396  -1.751  -1.141
   3.583  -1.494  -1.141
   3.739  -1.218  -1.141
   3.863  -0.925  -1.141
   3.952  -0.620  -1.141
   4.006  -0.307  -1.141
   3.972   0.010  -1.451
   3.953   0.327  -1.451
   3.898   0.640  -1.451
   3.807   0.944  -1.451
   3.681   1.235  -1.451
   3.523   1.510  -1.451
   3.333   1.765  -1.451
   3.115   1.996  -1.451
   2.323  -2.497  -1.451
   2.607  -2.354  -1.451
   2.872  -2.180  -1.451
   3.115  -1.976  -1.451
   3.333  -1.745  -1.451
   3.523  -1.490  -1.451
   3.681  -1.215  -1.451
   3.807  -0.924  -1.451
   3.898  -0.620  -1.451
   3.953  -0.307  -1.451
   3.885   0.010  -1.753
   3.866   0.329  -1.753
   3.808   0.642  -1.753
   3.713   0.947  -1.753
   3.582   1.238  -1.753
   3.417   1.511  -1.753
   3.220   1.763  -1.753
   2.995   1.988  -1.753
   1.874  -2.556  -1.753
   2.179  -2.461  -1.753
   2.470  -2.330  -1.753
   2.743  -2.165  -1.753
   2.995  -1.968  -1.753
   3.220  -1.743  -1.753
   3.417  -1.491  -1.753
   3.582  -1.218  -1.753
   3.713  -0.927  -1.753
   3.808  -0.622  -1.753
   3.866  -0.309  -1.753
   3.765   0.010  -2.043
   3.745   0.326  -2.043
   3.685   0.637  -2.043
   3.588   0.939  -2.043
   3.453   1.225  -2.043
   3.283   1.493  -2.043
   3.081   1.737  -2.043
   2.850   1.954  -2.043
   1.715  -2.468  -2.043
   2.022  -2.389  -2.043
   2.316  -2.273  -2.043
   2.594  -2.120  -2.043
   2.850  -1.934  -2.043
   3.081  -1.717  -2.043
   3.283  -1.473  -2.043
   3.453  -1.205  -2.043
   3.588  -0.919  -2.043
   3.685  -0.617  -2.043
   3.745  -0.306  -2.043
   3.613   0.010  -2.318
   3.592   0.326  -2.318
   3.529   0.636  -2.318
   3.425   0.936  -2.318
   3.282   1.218  -2.318
   3.103   1.479  -2.318
   2.890   1.714  -2.318
   2.648   1.919  -2.318
   1.479  -2.349  -2.318
   1.792  -2.296  -2.318
   2.094  -2.202  -2.318
   2.381  -2.069  -2.318
   2.648  -1.899  -2.318
   2.890  -1.694  -2.318
   3.103  -1.459  -2.318
   3.282  -1.198  -2.318
   3.425  -0.916  -2.318
   3.529  -0.616  -2.318
   3.592  -0.306  -2.318
   3.431   0.010  -2.574
   3.408   0.329  -2.574
   3.338   0.641  -2.574
   3.224   0.939  -2.574
   3.068   1.218  -2.574
   2.872   1.471  -2.574
   2.642   1.693  -2.574
   2.382   1.879  -2.574
   0.844  -2.143  -2.574
   1.162  -2.178  -2.574
   1.481  -2.166  -2.574
   1.796  -2.108  -2.574
   2.098  -2.005  -2.574
   2.382  -1.859  -2.574
   2.642  -1.673  -2.574
   2.872  -1.451  -2.574
   3.068  -1.198  -2.574
   3.224  -0.919  -2.574
   3.338  -0.621  -2.574
   3.408  -0.309  -2.574
   3.222   0.010  -2.808
   3.196   0.328  -2.808
   3.120   0.637  -2.808
   2.995   0.930  -2.808
   2.825   1.199  -2.808
   2.614   1.438  -2.808
   2.367   1.639  -2.808
   2.091   1.799  -2.808
   1.793   1.912  -2.808
   0.540  -1.841  -2.808
   0.846  -1.930  -2.808
   1.162  -1.968  -2.808
   1.481  -1.955  -2.808
   1.793  -1.892  -2.808
   2.091  -1.779  -2.808
   2.367  -1.619  -2.808
   2.614  -1.418  -2.808
   2.825  -1.179  -2.808
   2.995  -0.910  -2.808
   3.120  -0.617  -2.808
   3.196  -0.308  -2.808
   2.988   0.010  -3.017
   2.958   0.331  -3.017
   2.870   0.641  -3.017
   2.726   0.929  -3.017
   2.532   1.186  -3.017
   2.294   1.403  -3.017
   2.020   1.573  -3.017
   1.720   1.689  -3.017
   1.403   1.748  -3.017
   0.190  -1.383  -3.017
   0.464  -1.553  -3.017
   0.764  -1.669  -3.017
   1.081  -1.728  -3.017
   1.403  -1.728  -3.017
   1.720  -1.669  -3.017
   2.020  -1.553  -3.017
   2.294  -1.383  -3.017
   2.532  -1.166  -3.017
   2.726  -0.909  -3.017
   2.870  -0.621  -3.017
   2.958  -0.311  -3.017
   2.732   0.010  -3.199
   2.697   0.330  -3.199
   2.594   0.636  -3.199
   2.428   0.912  -3.199
   2.206   1.145  -3.199
   1.940   1.326  -3.199
   1.641   1.445  -3.199
   1.323   1.498  -3.199
   1.001   1.480  -3.199
   0.160  -1.014  -3.199
   0.406  -1.223  -3.199
   0.691  -1.374  -3.199
   1.001  -1.460  -3.199
   1.323  -1.478  -3.199
   1.641  -1.425  -3.199
   1.940  -1.306  -3.199
   2.206  -1.125  -3.199
   2.428  -0.892  -3.199
   2.594  -0.616  -3.199
   2.697  -0.310  -3.199
   2.457   0.010  -3.351
   2.415   0.324  -3.351
   2.294   0.617  -3.351
   2.101   0.869  -3.351
   1.849   1.062  -3.351
   1.556   1.183  -3.351
   1.242   1.225  -3.351
   0.928   1.183  -3.351
   0.190  -0.597  -3.351
   0.383  -0.849  -3.351
   0.635  -1.042  -3.351
   0.928  -1.163  -3.351
   1.242  -1.205  -3.351
   1.556  -1.163  -3.351
   1.849  -1.042  -3.351
   2.101  -0.849  -3.351
   2.294  -0.597  -3.351
   2.415  -0.304  -3.351
   2.167   0.010  -3.471
   2.111   0.326  -3.471
   1.950   0.604  -3.471
   1.704   0.811  -3.471
   1.403   0.921  -3.471
   1.081   0.921  -3.471
   0.780   0.811  -3.471
   0.373  -0.306  -3.471
   0.534  -0.584  -3.471
   0.780  -0.791  -3.471
   1.081  -0.901  -3.471
   1.403  -0.901  -3.471
   1.704  -0.791  -3.471
   1.950  -0.584  -3.471
   2.111  -0.306  -3.471
   1.865   0.010  -3.558
   1.782   0.322  -3.558
   1.554   0.550  -3.558
   1.242   0.633  -3.558
   0.930   0.550  -3.558
   0.702   0.322  -3.558
   0.619   0.010  -3.558
   0.702  -0.302  -3.558
   0.930  -0.530  -3.558
   1.242  -0.613  -3.558
   1.554  -0.530  -3.558
   1.782  -0.302  -3.558
   1.556   0.010  -3.610
   1.399   0.282  -3.610
   1.085   0.282  -3.610
   0.928   0.010  -3.610
   1.085  -0.262  -3.610
   1.399  -0.262  -3.610
   1.242   0.010  -3.628
  -0.579  -2.470   2.863
  -0.270  -2.582   2.863
   0.060  -2.582   2.863
  -0.986  -2.530   2.740
  -0.728  -2.727   2.740
  -0.427  -2.852   2.740
  -0.105  -2.894   2.740
   0.217  -2.852   2.740
   0.518  -2.727   2.740
   0.776  -2.530   2.740
  -1.552  -2.137   2.584
  -1.413  -2.436   2.584
  -1.214  -2.699   2.584
  -0.962  -2.913   2.584
  -0.670  -3.067   2.584
  -0.352  -3.156   2.584
  -0.022  -3.174   2.584
   0.303  -3.120   2.584
   0.610  -2.998   2.584
   0.884  -2.813   2.584
   1.111  -2.573   2.584
  -1.864  -1.978   2.398
  -1.774  -2.295   2.398
  -1.626  -2.591   2.398
  -1.427  -2.855   2.398
  -1.183  -3.077   2.398
  -0.903  -3.251   2.398
  -0.595  -3.370   2.398
  -0.270  -3.431   2.398
   0.060  -3.431   2.398
   0.385  -3.370   2.398
   0.693  -3.251   2.398
   0.973  -3.077   2.398
   1.217  -2.855   2.398
   1.416  -2.591   2.398
   1.564  -2.295   2.398
  -2.128  -1.812   2.183
  -2.075  -2.135   2.183
  -1.972  -2.444   2.183
  -1.820  -2.734   2.183
  -1.624  -2.995   2.183
  -1.388  -3.221   2.183
  -1.120  -3.407   2.183
  -0.825  -3.547   2.183
  -0.511  -3.637   2.183
  -0.187  -3.677   2.183
   0.140  -3.664   2.183
   0.460  -3.598   2.183
   0.765  -3.482   2.183
   1.048  -3.319   2.183
   1.301  -3.113   2.183
   1.517  -2.868   2.183
   1.692  -2.592   2.183
   1.820  -2.292   2.183
  -2.343  -1.813   1.943
  -2.295  -2.137   1.943
  -2.201  -2.451   1.943
  -2.062  -2.747   1.943
  -1.881  -3.020   1.943
  -1.662  -3.264   1.943
  -1.411  -3.474   1.943
  -1.131  -3.645   1.943
  -0.830  -3.773   1.943
  -0.513  -3.856   1.943
  -0.187  -3.891   1.943
   0.140  -3.879   1.943
   0.463  -3.820   1.943
   0.773  -3.714   1.943
   1.064  -3.564   1.943
   1.330  -3.374   1.943
   1.566  -3.146   1.943
   1.766  -2.887   1.943
   1.927  -2.601   1.943
   2.044  -2.295   1.943
   2.115  -1.976   1.943
   2.325  -1.649   1.681
  -2.530  -1.487   1.681
  -2.530  -1.811   1.681
  -2.486  -2.133   1.681
  -2.401  -2.446   1.681
  -2.274  -2.745   1.681
  -2.108  -3.024   1.681
  -1.907  -3.279   1.681
  -1.674  -3.505   1.681
  -1.413  -3.697   1.681
  -1.128  -3.853   1.681
  -0.825  -3.970   1.681
  -0.509  -4.045   1.681
  -0.186  -4.078   1.681
   0.138  -4.067   1.681
   0.458  -4.013   1.681
   0.768  -3.917   1.681
   1.063  -3.780   1.681
   1.336  -3.605   1.681
   1.584  -3.396   1.681
   1.802  -3.155   1.681
   1.986  -2.887   1.681
   2.132  -2.598   1.681
   2.239  -2.291   1.681
   2.303  -1.973   1.681
  -2.691  -1.649   1.399
  -2.670  -1.973   1.399
  -2.610  -2.292   1.399
  -2.509  -2.601   1.399
  -2.371  -2.895   1.399
  -2.197  -3.169   1.399
  -1.990  -3.419   1.399
  -1.753  -3.641   1.399
  -1.491  -3.832   1.399
  -1.206  -3.989   1.399
  -0.904  -4.108   1.399
  -0.590  -4.189   1.399
  -0.267  -4.230   1.399
   0.057  -4.230   1.399
   0.380  -4.189   1.399
   0.694  -4.108   1.399
   0.996  -3.989   1.399
   1.281  -3.832   1.399
   1.543  -3.641   1.399
   1.780  -3.419   1.399
   1.987  -3.169   1.399
   2.161  -2.895   1.399
   2.299  -2.601   1.399
   2.400  -2.292   1.399
   2.460  -1.973   1.399
  -2.794  -1.976   1.102
  -2.735  -2.297   1.102
  -2.638  -2.610   1.102
  -2.504  -2.908   1.102
  -2.334  -3.188   1.102
  -2.133  -3.445   1.102
  -1.901  -3.677   1.102
  -1.644  -3.878   1.102
  -1.364  -4.048   1.102
  -1.066  -4.182   1.102
  -0.753  -4.279   1.102
  -0.432  -4.338   1.102
  -0.105  -4.358   1.102
   0.222  -4.338   1.102
   0.543  -4.279   1.102
   0.856  -4.182   1.102
   1.154  -4.048   1.102
   1.434  -3.878   1.102
   1.691  -3.677   1.102
   1.923  -3.445   1.102
   2.124  -3.188   1.102
   2.294  -2.908   1.102
   2.428  -2.610   1.102
   2.525  -2.297   1.102
   2.584  -1.976   1.102
  -2.828  -2.294   0.793
  -2.734  -2.606   0.793
  -2.605  -2.905   0.793
  -2.443  -3.187   0.793
  -2.248  -3.448   0.793
  -2.025  -3.684   0.793
  -1.776  -3.893   0.793
  -1.504  -4.072   0.793
  -1.213  -4.218   0.793
  -0.907  -4.329   0.793
  -0.591  -4.405   0.793
  -0.268  -4.442   0.793
   0.058  -4.442   0.793
   0.381  -4.405   0.793
   0.697  -4.329   0.793
   1.003  -4.218   0.793
   1.294  -4.072   0.793
   1.566  -3.893   0.793
   1.815  -3.684   0.793
   2.038  -3.448   0.793
   2.233  -3.187   0.793
   2.395  -2.905   0.793
   2.524  -2.606   0.793
   2.618  -2.294   0.793
   2.674  -1.974   0.793
  -2.841  -2.452   0.475
  -2.732  -2.759   0.475
  -2.588  -3.051   0.475
  -2.412  -3.325   0.475
  -2.206  -3.577   0.475
  -1.973  -3.804   0.475
  -1.715  -4.003   0.475
  -1.436  -4.171   0.475
  -1.140  -4.307   0.475
  -0.830  -4.407   0.475
  -0.511  -4.472   0.475
  -0.186  -4.500   0.475
   0.139  -4.490   0.475
   0.461  -4.444   0.475
   0.776  -4.361   0.475
   1.080  -4.243   0.475
   1.368  -4.091   0.475
   1.637  -3.907   0.475
   1.883  -3.694   0.475
   2.103  -3.454   0.475
   2.294  -3.191   0.475
   2.454  -2.907   0.475
   2.581  -2.607   0.475
   2.673  -2.295   0.475
   2.728  -1.974   0.475
  -2.814  -2.597   0.154
  -2.691  -2.894   0.154
  -2.535  -3.176   0.154
  -2.349  -3.438   0.154
  -2.134  -3.678   0.154
  -1.894  -3.893   0.154
  -1.632  -4.079   0.154
  -1.350  -4.235   0.154
  -1.053  -4.358   0.154
  -0.744  -4.447   0.154
  -0.426  -4.501   0.154
  -0.105  -4.519   0.154
   0.216  -4.501   0.154
   0.534  -4.447   0.154
   0.843  -4.358   0.154
   1.140  -4.235   0.154
   1.422  -4.079   0.154
   1.684  -3.893   0.154
   1.924  -3.678   0.154
   2.139  -3.438   0.154
   2.325  -3.176   0.154
   2.481  -2.894   0.154
   2.604  -2.597   0.154
   2.693  -2.288   0.154
  -2.732  -2.759  -0.167
  -2.588  -3.051  -0.167
  -2.412  -3.325  -0.167
  -2.206  -3.577  -0.167
  -1.973  -3.804  -0.167
  -1.715  -4.003  -0.167
  -1.436  -4.171  -0.167
  -1.140  -4.307  -0.167
  -0.830  -4.407  -0.167
  -0.511  -4.472  -0.167
  -0.186  -4.500  -0.167
   0.139  -4.490  -0.167
   0.461  -4.444  -0.167
   0.776  -4.361  -0.167
   1.080  -4.243  -0.167
   1.368  -4.091  -0.167
   1.637  -3.907  -0.167
   1.883  -3.694  -0.167
   2.103  -3.454  -0.167
   2.294  -3.191  -0.167
   2.454  -2.907  -0.167
   2.581  -2.607  -0.167
  -2.605  -2.905  -0.485
  -2.443  -3.187  -0.485
  -2.248  -3.448  -0.485
  -2.025  -3.684  -0.485
  -1.776  -3.893  -0.485
  -1.504  -4.072  -0.485
  -1.213  -4.218  -0.485
  -0.907  -4.329  -0.485
  -0.591  -4.405  -0.485
  -0.268  -4.442  -0.485
   0.058  -4.442  -0.485
   0.381  -4.405  -0.485
   0.697  -4.330  -0.485
   1.003  -4.218  -0.485
   1.294  -4.072  -0.485
   1.566  -3.893  -0.485
   1.815  -3.684  -0.485
   2.038  -3.448  -0.485
   2.233  -3.187  -0.485
   2.395  -2.905  -0.485
   2.524  -2.606  -0.485
  -2.504  -2.908  -0.794
  -2.334  -3.188  -0.794
  -2.133  -3.445  -0.794
  -1.901  -3.677  -0.794
  -1.644  -3.878  -0.794
  -1.364  -4.048  -0.794
  -1.066  -4.182  -0.794
  -0.753  -4.279  -0.794
  -0.432  -4.338  -0.794
  -0.105  -4.358  -0.794
   0.222  -4.338  -0.794
   0.543  -4.279  -0.794
   0.856  -4.182  -0.794
   1.154  -4.048  -0.794
   1.434  -3.878  -0.794
   1.691  -3.677  -0.794
   1.923  -3.445  -0.794
   2.124  -3.188  -0.794
   2.294  -2.908  -0.794
   2.428  -2.610  -0.794
  -2.371  -2.895  -1.091
  -2.197  -3.169  -1.091
  -1.990  -3.419  -1.091
  -1.753  -3.641  -1.091
  -1.491  -3.832  -1.091
  -1.206  -3.989  -1.091
  -0.904  -4.108  -1.091
  -0.590  -4.189  -1.091
  -0.267  -4.230  -1.091
   0.057  -4.230  -1.091
   0.380  -4.189  -1.091
   0.694  -4.108  -1.091
   0.996  -3.989  -1.091
   1.281  -3.832  -1.091
   1.543  -3.641  -1.091
   1.780  -3.419  -1.091
   1.987  -3.169  -1.091
   2.161  -2.895  -1.091
   2.299  -2.601  -1.091
  -2.274  -2.745  -1.373
  -2.108  -3.024  -1.373
  -1.907  -3.279  -1.373
  -1.674  -3.505  -1.373
  -1.413  -3.697  -1.373
  -1.128  -3.853  -1.373
  -0.825  -3.970  -1.373
  -0.509  -4.045  -1.373
  -0.186  -4.078  -1.373
   0.138  -4.067  -1.373
   0.458  -4.013  -1.373
   0.768  -3.917  -1.373
   1.063  -3.780  -1.373
   1.336  -3.605  -1.373
   1.584  -3.396  -1.373
   1.802  -3.155  -1.373
   1.986  -2.887  -1.373
   2.132  -2.598  -1.373
  -2.062  -2.747  -1.635
  -1.881  -3.020  -1.635
  -1.662  -3.264  -1.635
  -1.411  -3.474  -1.635
  -1.131  -3.645  -1.635
  -0.830  -3.773  -1.635
  -0.513  -3.856  -1.635
  -0.187  -3.891  -1.635
   0.140  -3.879  -1.635
   0.463  -3.820  -1.635
   0.773  -3.714  -1.635
   1.064  -3.564  -1.635
   1.330  -3.374  -1.635
   1.566  -3.146  -1.635
   1.766  -2.887  -1.635
   1.927  -2.601  -1.635
  -1.820  -2.734  -1.875
  -1.624  -2.995  -1.875
  -1.388  -3.221  -1.875
  -1.120  -3.407  -1.875
  -0.825  -3.547  -1.875
  -0.511  -3.637  -1.875
  -0.187  -3.677  -1.875
   0.140  -3.664  -1.875
   0.460  -3.598  -1.875
   0.765  -3.482  -1.875
   1.048  -3.319  -1.875
   1.301  -3.113  -1.875
   1.517  -2.868  -1.875
   1.692  -2.592  -1.875
  -1.626  -2.591  -2.090
  -1.427  -2.855  -2.090
  -1.183  -3.077  -2.090
  -0.903  -3.251  -2.090
  -0.595  -3.370  -2.090
  -0.270  -3.431  -2.090
   0.060  -3.431  -2.090
   0.385  -3.370  -2.090
   0.693  -3.251  -2.090
   0.973  -3.077  -2.090
   1.217  -2.855  -2.090
   1.416  -2.591  -2.090
  -1.413  -2.436  -2.276
  -1.214  -2.699  -2.276
  -0.962  -2.913  -2.276
  -0.670  -3.067  -2.276
  -0.352  -3.156  -2.276
  -0.022  -3.174  -2.276
   0.303  -3.120  -2.276
   0.610  -2.998  -2.276
   0.884  -2.813  -2.276
   1.111  -2.573  -2.276
  -1.183  -2.272  -2.432
  -0.986  -2.530  -2.432
  -0.728  -2.727  -2.432
  -0.427  -2.852  -2.432
  -0.105  -2.894  -2.432
   0.217  -2.852  -2.432
   0.518  -2.727  -2.432
   0.776  -2.530  -2.432
   0.973  -2.272  -2.432
  -0.831  -2.258  -2.555
  -0.579  -2.470  -2.555
  -0.270  -2.583  -2.555
   0.060  -2.583  -2.555
   0.369  -2.470  -2.555
   0.621  -2.258  -2.555
  -0.658  -1.968  -2.644
  -0.424  -2.202  -2.644
  -0.105  -2.288  -2.644
   0.214  -2.202  -2.644
   0.448  -1.968  -2.644
  -0.266  -1.927  -2.698
   0.056  -1.927  -2.698
  -2.779   0.646   1.742
  -2.915   0.354   1.742
  -2.984   0.039   1.742
  -2.984  -0.283   1.742
  -2.915  -0.598   1.742
  -2.779  -0.890   1.742
  -2.585  -1.146   1.742
  -3.131   0.509   1.560
  -3.219   0.199   1.560
  -3.249  -0.122   1.560
  -3.219  -0.443   1.560
  -3.131  -0.753   1.560
  -2.987  -1.041   1.560
  -2.793  -1.298   1.560
  -3.476   0.037   1.351
  -3.476  -0.281   1.351
  -3.425  -0.596   1.351
  -3.324  -0.898   1.351
  -3.176  -1.180   1.351
  -2.985  -1.435   1.351
  -2.755  -1.656   1.351
  -3.686  -0.282   1.117
  -3.640  -0.598   1.117
  -3.548  -0.904   1.117
  -3.412  -1.193   1.117
  -3.236  -1.460   1.117
  -3.022  -1.698   1.117
  -3.826  -0.594   0.861
  -3.743  -0.900   0.861
  -3.619  -1.191   0.861
  -3.458  -1.464   0.861
  -3.261  -1.712   0.861
  -3.034  -1.932   0.861
  -3.946  -0.749   0.586
  -3.849  -1.051   0.586
  -3.714  -1.337   0.586
  -3.544  -1.605   0.586
  -3.342  -1.849   0.586
  -3.111  -2.066   0.586
  -3.974  -1.059   0.296
  -3.843  -1.350   0.296
  -3.678  -1.623   0.296
  -3.481  -1.875   0.296
  -3.256  -2.100   0.296
  -3.004  -2.297   0.296
  -3.942  -1.347  -0.006
  -3.784  -1.622  -0.006
  -3.594  -1.877  -0.006
  -3.376  -2.108  -0.006
  -3.133  -2.312  -0.006
  -2.868  -2.486  -0.006
  -3.754  -1.757  -0.315
  -3.553  -2.003  -0.315
  -3.325  -2.225  -0.315
  -3.074  -2.419  -0.315
  -2.801  -2.583  -0.315
  -3.692  -1.868  -0.629
  -3.483  -2.102  -0.629
  -3.249  -2.311  -0.629
  -2.993  -2.493  -0.629
  -2.718  -2.645  -0.629
  -3.325  -2.225  -0.942
  -3.074  -2.419  -0.942
  -2.801  -2.583  -0.942
  -3.133  -2.312  -1.252
  -2.868  -2.486  -1.252
  -2.584  -2.629  -1.252
  -3.004  -2.297  -1.554
  -2.731  -2.462  -1.554
  -2.440  -2.593  -1.554
  -2.855  -2.252  -1.844
  -2.577  -2.405  -1.844
  -2.283  -2.521  -1.844
  -1.976  -2.600  -1.844
  -2.501  -2.273  -2.119
  -2.205  -2.386  -2.119
  -1.897  -2.460  -2.119
  -2.210  -2.194  -2.375
  -1.901  -2.275  -2.375
  -1.583  -2.310  -2.375
  -1.899  -2.062  -2.609
  -1.583  -2.100  -2.609
  -1.264  -2.087  -2.609
  -0.952  -2.024  -2.609
  -1.664  -1.860  -2.818
  -1.342  -1.860  -2.818
  -1.025  -1.801  -2.818
  -0.725  -1.685  -2.818
  -0.805  -1.438  -3.000
  -3.451   0.508   1.416
  -3.715   0.329   1.248
  -4.052   0.501   1.047
  -3.954   0.158   1.047
  -3.795  -0.161   1.047
  -4.337   0.680   0.815
  -4.280   0.331   0.815
  -4.169  -0.003   0.815
  -4.005  -0.316   0.815
  -4.569   0.679   0.556
  -4.518   0.329   0.556
  -4.416  -0.010   0.556
  -4.266  -0.330   0.556
  -4.070  -0.625   0.556
  -4.771   0.681   0.272
  -4.724   0.333   0.272
  -4.632  -0.005   0.272
  -4.495  -0.328   0.272
  -4.316  -0.630   0.272
  -4.099  -0.905   0.272
  -4.945   0.856  -0.032
  -4.923   0.506  -0.032
  -5.057   1.209  -0.353
  -5.093   1.553  -0.687
  -5.108   1.724  -1.030
  -5.078   1.880  -1.377
  -4.834   2.371  -1.724
  -4.990   2.055  -1.724
  -1.976   3.873  -2.067
  -4.467   2.799  -2.067
  -4.677   2.517  -2.067
  -4.853   2.212  -2.067
  -2.152   3.782  -2.401
  -2.505   3.761  -2.401
  -2.852   3.697  -2.401
  -3.190   3.592  -2.401
  -3.512   3.447  -2.401
  -3.814   3.264  -2.401
  -4.092   3.046  -2.401
  -4.342   2.796  -2.401
  -4.560   2.518  -2.401
  -2.675   3.600  -2.722
  -3.015   3.512  -2.722
  -3.341   3.383  -2.722
  -3.649   3.214  -2.722
  -3.932   3.008  -2.722
  -4.188   2.768  -2.722
  -4.412   2.498  -2.722
  -1.977  -1.931  -2.722
  -2.930   3.363  -3.026
  -3.257   3.237  -3.026
  -3.564   3.068  -3.026
  -3.847   2.860  -3.026
  -4.099   2.617  -3.026
  -4.316   2.342  -3.026
  -1.889  -1.756  -3.026
  -1.544  -1.697  -3.026
  -1.209  -1.593  -3.026
  -0.891  -1.446  -3.026
  -0.595  -1.257  -3.026
  -2.935   3.150  -3.310
  -3.260   3.011  -3.310
  -3.562   2.827  -3.310
  -3.834   2.601  -3.310
  -4.070   2.337  -3.310
  -1.887  -1.553  -3.310
  -1.539  -1.489  -3.310
  -1.204  -1.375  -3.310
  -0.889  -1.213  -3.310
  -0.602  -1.007  -3.310
  -3.248   2.754  -3.569
  -3.538   2.554  -3.569
  -3.793   2.310  -3.569
  -1.888  -1.320  -3.569
  -1.542  -1.249  -3.569
  -1.212  -1.124  -3.569
  -0.907  -0.948  -3.569
  -3.317   2.398  -3.801
  -3.580   2.158  -3.801
  -1.974  -1.069  -3.801
  -1.623  -1.003  -3.801
  -1.290  -0.874  -3.801
  -3.349   1.990  -4.002
  -3.565   1.706  -4.002
  -2.063  -0.791  -4.002
  -1.711  -0.733  -4.002
  -1.379  -0.601  -4.002
  -3.103   1.807  -4.170
  -3.317   1.529  -4.170
  -2.152  -0.489  -4.170
  -1.804  -0.443  -4.170
  -3.114   1.206  -4.303
  -2.330  -0.152  -4.303
  -1.974  -0.152  -4.303
  -2.842   0.856  -4.399
  -2.497   0.259  -4.399
  -2.992   1.968   1.774
  -3.070   1.679   1.774
  -2.992   1.390   1.774
  -2.780   1.178   1.774
  -2.920   2.423   1.693
  -3.149   2.231   1.693
  -3.298   1.973   1.693
  -3.350   1.679   1.693
  -3.298   1.385   1.693
  -3.149   1.127   1.693
  -2.920   0.935   1.693
  -2.783   2.769   1.582
  -3.055   2.656   1.582
  -3.289   2.477   1.582
  -3.468   2.243   1.582
  -3.581   1.971   1.582
  -3.619   1.679   1.582
  -3.581   1.387   1.582
  -3.468   1.115   1.582
  -3.289   0.881   1.582
  -2.416   3.060   1.440
  -2.715   3.044   1.440
  -3.003   2.964   1.440
  -3.267   2.824   1.440
  -3.495   2.630   1.440
  -3.676   2.392   1.440
  -3.802   2.121   1.440
  -3.866   1.829   1.440
  -3.866   1.529   1.440
  -3.802   1.237   1.440
  -3.676   0.966   1.440
  -3.495   0.728   1.440
  -2.341   3.293   1.272
  -2.641   3.293   1.272
  -2.935   3.238   1.272
  -3.214   3.130   1.272
  -3.468   2.973   1.272
  -3.689   2.771   1.272
  -3.869   2.532   1.272
  -4.003   2.265   1.272
  -4.084   1.977   1.272
  -4.112   1.679   1.272
  -4.084   1.381   1.272
  -4.003   1.093   1.272
  -3.869   0.826   1.272
  -2.269   3.504   1.077
  -2.565   3.516   1.077
  -2.859   3.480   1.077
  -3.143   3.398   1.077
  -3.410   3.271   1.077
  -3.654   3.103   1.077
  -3.867   2.898   1.077
  -4.045   2.662   1.077
  -4.182   2.400   1.077
  -4.276   2.119   1.077
  -4.324   1.827   1.077
  -4.324   1.531   1.077
  -4.276   1.239   1.077
  -4.182   0.958   1.077
  -4.045   0.696   1.077
  -2.269   3.700   0.860
  -2.565   3.710   0.860
  -2.860   3.678   0.860
  -3.147   3.603   0.860
  -3.420   3.487   0.860
  -3.674   3.332   0.860
  -3.902   3.142   0.860
  -4.100   2.921   0.860
  -4.264   2.674   0.860
  -4.390   2.405   0.860
  -4.475   2.121   0.860
  -4.518   1.827   0.860
  -4.518   1.531   0.860
  -4.475   1.237   0.860
  -4.390   0.953   0.860
  -1.981   3.821   0.622
  -2.271   3.869   0.622
  -2.565   3.879   0.622
  -2.857   3.850   0.622
  -3.143   3.782   0.622
  -3.418   3.676   0.622
  -3.676   3.535   0.622
  -3.912   3.360   0.622
  -4.124   3.156   0.622
  -4.306   2.925   0.622
  -4.456   2.672   0.622
  -4.571   2.401   0.622
  -4.648   2.118   0.622
  -4.688   1.826   0.622
  -4.688   1.532   0.622
  -4.648   1.241   0.622
  -4.571   0.957   0.622
  -2.052   3.980   0.367
  -2.344   4.017   0.367
  -2.638   4.017   0.367
  -2.930   3.980   0.367
  -3.215   3.907   0.367
  -3.488   3.799   0.367
  -3.746   3.657   0.367
  -3.984   3.484   0.367
  -4.199   3.283   0.367
  -4.386   3.056   0.367
  -4.544   2.808   0.367
  -4.669   2.541   0.367
  -4.760   2.262   0.367
  -4.815   1.973   0.367
  -4.834   1.679   0.367
  -4.815   1.385   0.367
  -4.760   1.096   0.367
  -1.904   4.062   0.098
  -2.195   4.115   0.098
  -2.491   4.133   0.098
  -2.787   4.115   0.098
  -3.078   4.062   0.098
  -3.361   3.974   0.098
  -3.631   3.852   0.098
  -3.885   3.699   0.098
  -4.118   3.516   0.098
  -4.328   3.306   0.098
  -4.511   3.073   0.098
  -4.664   2.819   0.098
  -4.786   2.549   0.098
  -4.874   2.266   0.098
  -4.927   1.975   0.098
  -4.945   1.679   0.098
  -4.927   1.383   0.098
  -4.874   1.092   0.098
  -1.764   4.107  -0.182
  -2.051   4.175  -0.182
  -2.344   4.210  -0.182
  -2.638   4.210  -0.182
  -2.931   4.175  -0.182
  -3.218   4.107  -0.182
  -3.495   4.007  -0.182
  -3.758   3.874  -0.182
  -4.005   3.712  -0.182
  -4.230   3.523  -0.182
  -4.433   3.308  -0.182
  -4.609   3.072  -0.182
  -4.756   2.817  -0.182
  -4.873   2.546  -0.182
  -4.957   2.264  -0.182
  -5.009   1.973  -0.182
  -5.026   1.679  -0.182
  -5.009   1.385  -0.182