 $system timlim=999888777
         mwords=100 $end
 $contrl exetyp=run
         runtyp=energy scftyp=rhf
         icharg=-1 mult=1 units=angs coord=unique
         maxit=50 ispher=1 qmttol=1d-6 icut=12 itol=22 $end
 $scf    dirscf=.t. diis=.t. soscf=.f.
         fdiff=.f. conv=1d-6
         npreo(1)=0,-1,1,9999 $end
 $elpot  iepot=1 where=points $end
 $basis  gbasis=n311 ngauss=6
         ndfunc=1 npfunc=1 diffsp=.t. diffs=.t. $end
 $DATA
TS1a_hfd_irc200_all_revmov.pdb
C1
P     15.0     0.00000   0.00100  -0.00000 
O      8.0     0.00300  -0.00300   1.63300 
O      8.0     1.24200   0.00400  -0.82700 
F      9.0    -0.11000  -1.64800   0.16000 
O      8.0    -1.50300  -0.12200  -0.62900 
C      6.0    -2.15200   0.85600  -1.37700 
H      1.0    -2.48800   1.68100  -0.76200 
H      1.0    -1.52100   1.25100  -2.16500 
H      1.0    -3.01100   0.36900  -1.83000 
C      6.0     0.39100   1.05800   2.44600 
H      1.0     0.50000   0.64900   3.44700 
H      1.0     1.34400   1.47800   2.13900 
H      1.0    -0.34500   1.85100   2.46000 
O      8.0    -0.15300   1.73500   0.01000 
H      1.0     0.58400   2.04000  -0.49600 
 $END
 $POINTS
ANGS 3042
   2.605  -1.431   1.432
   2.764  -1.094   1.432
   2.880  -0.738   1.432
   2.758  -1.447   1.090
  -0.284  -1.732  -2.794
   0.095  -1.752  -2.794
  -0.371  -1.382  -2.973
   0.000  -1.431  -2.973
  -0.189  -1.072  -3.115
  -1.818  -0.779   3.613
  -1.670  -1.061   3.613
  -1.479  -1.316   3.613
  -1.249  -1.537   3.613
  -0.987  -1.718   3.613
  -0.699  -1.854   3.613
  -0.393  -1.943   3.613
  -0.077  -1.981   3.613
   0.242  -1.968   3.613
  -2.042  -0.785   3.379
  -1.906  -1.074   3.379
  -1.730  -1.341   3.379
  -1.516  -1.579   3.379
  -1.271  -1.783   3.379
  -0.998  -1.950   3.379
  -0.704  -2.075   3.379
  -0.395  -2.156   3.379
  -0.077  -2.191   3.379
   0.242  -2.179   3.379
   0.557  -2.121   3.379
   0.859  -2.018   3.379
   1.143  -1.872   3.379
  -2.320  -0.475   3.123
  -2.237  -0.781   3.123
  -2.113  -1.072   3.123
  -1.952  -1.345   3.123
  -1.755  -1.593   3.123
  -1.528  -1.813   3.123
  -1.273  -2.001   3.123
  -0.995  -2.154   3.123
  -0.699  -2.267   3.123
  -0.391  -2.341   3.123
  -0.076  -2.373   3.123
   0.240  -2.362   3.123
   0.553  -2.309   3.123
   0.855  -2.215   3.123
   1.142  -2.082   3.123
   1.409  -1.912   3.123
   1.651  -1.707   3.123
  -2.520  -0.003   2.848
  -2.500  -0.319   2.848
  -2.440  -0.630   2.848
  -2.343  -0.932   2.848
  -2.208  -1.218   2.848
  -2.038  -1.486   2.848
  -1.836  -1.730   2.848
  -1.605  -1.947   2.848
  -1.349  -2.133   2.848
  -1.071  -2.286   2.848
  -0.777  -2.402   2.848
   0.476  -2.481   2.848
   0.783  -2.402   2.848
   1.077  -2.286   2.848
   1.355  -2.133   2.848
   1.611  -1.947   2.848
   1.842  -1.730   2.848
  -2.621   0.316   2.558
  -2.640  -0.003   2.558
  -2.621  -0.322   2.558
  -2.563  -0.635   2.558
  -2.468  -0.940   2.558
  -2.337  -1.231   2.558
  -2.172  -1.504   2.558
  -1.975  -1.756   2.558
  -1.750  -1.981   2.558
   1.504  -2.178   2.558
   1.756  -1.981   2.558
   1.981  -1.756   2.558
   2.178  -1.504   2.558
  -2.708   0.314   2.256
  -2.727  -0.003   2.256
  -2.708  -0.320   2.256
  -2.653  -0.633   2.256
  -2.562  -0.937   2.256
  -2.436  -1.228   2.256
  -2.278  -1.503   2.256
  -2.088  -1.758   2.256
   1.876  -1.989   2.256
   2.094  -1.758   2.256
   2.284  -1.503   2.256
  -2.667   0.781   1.947
  -2.739   0.471   1.947
  -2.775   0.156   1.947
  -2.775  -0.162   1.947
  -2.739  -0.477   1.947
  -2.667  -0.787   1.947
  -2.560  -1.086   1.947
  -2.420  -1.371   1.947
   2.157  -1.764   1.947
   2.344  -1.507   1.947
   2.500  -1.231   1.947
   2.995  -0.916   1.153
   3.120  -0.623   1.153
   3.196  -0.314   1.153
   3.431   0.004   0.919
   3.408   0.323   0.919
   2.872  -1.457   0.919
   3.068  -1.204   0.919
   3.224  -0.925   0.919
   3.338  -0.627   0.919
   3.408  -0.315   0.919
   3.613   0.004   0.663
   3.592   0.320   0.663
   3.529   0.630   0.663
   3.425   0.930   0.663
   2.890  -1.700   0.663
   3.103  -1.465   0.663
   3.282  -1.204   0.663
   3.425  -0.922   0.663
   3.529  -0.622   0.663
   3.592  -0.312   0.663
   3.765   0.004   0.388
   3.745   0.320   0.388
   3.685   0.631   0.388
   3.588   0.933   0.388
   3.453   1.219   0.388
   3.283   1.487   0.388
   2.850  -1.940   0.388
   3.081  -1.723   0.388
   3.283  -1.479   0.388
   3.453  -1.211   0.388
   3.588  -0.925   0.388
   3.685  -0.623   0.388
   3.745  -0.312   0.388
   3.885   0.004   0.098
   3.866   0.323   0.098
   3.808   0.636   0.098
   3.713   0.941   0.098
   3.582   1.232   0.098
   3.417   1.505   0.098
   3.220   1.757   0.098
   2.743  -2.171   0.098
   2.995  -1.974   0.098
   3.220  -1.749   0.098
   3.417  -1.497   0.098
   3.582  -1.224   0.098
   3.713  -0.933   0.098
   3.808  -0.628   0.098
   3.866  -0.315   0.098
   3.972   0.004  -0.204
   3.953   0.321  -0.204
   3.898   0.634  -0.204
   3.807   0.938  -0.204
   3.681   1.229  -0.204
   3.523   1.504  -0.204
   3.333   1.759  -0.204
   2.872  -2.186  -0.204
   3.115  -1.982  -0.204
   3.333  -1.751  -0.204
   3.523  -1.496  -0.204
   3.681  -1.221  -0.204
   3.807  -0.930  -0.204
   3.898  -0.626  -0.204
   3.953  -0.313  -0.204
   4.024   0.004  -0.513
   4.006   0.321  -0.513
   3.952   0.634  -0.513
   3.863   0.939  -0.513
   3.739   1.232  -0.513
   3.583   1.508  -0.513
   3.396   1.765  -0.513
   2.679  -2.379  -0.513
   2.941  -2.199  -0.513
   3.181  -1.991  -0.513
   3.396  -1.757  -0.513
   3.583  -1.500  -0.513
   3.739  -1.224  -0.513
   3.863  -0.931  -0.513
   3.952  -0.626  -0.513
   4.006  -0.313  -0.513
   4.042   0.004  -0.827
   4.024   0.318  -0.827
   3.972   0.627  -0.827
   3.885   0.929  -0.827
   3.765   1.219  -0.827
   3.613   1.494  -0.827
   3.431   1.750  -0.827
   3.222   1.984  -0.827
   2.457  -2.519  -0.827
   2.732  -2.367  -0.827
   2.988  -2.185  -0.827
   3.222  -1.976  -0.827
   3.431  -1.742  -0.827
   3.613  -1.486  -0.827
   3.765  -1.211  -0.827
   3.885  -0.921  -0.827
   3.972  -0.619  -0.827
   4.024  -0.310  -0.827
   4.024   0.004  -1.140
   4.006   0.321  -1.140
   3.952   0.634  -1.140
   3.863   0.939  -1.140
   3.739   1.232  -1.140
   3.583   1.508  -1.140
   3.396   1.765  -1.140
   3.181   1.999  -1.140
   2.398  -2.527  -1.140
   2.679  -2.379  -1.140
   2.941  -2.199  -1.140
   3.181  -1.991  -1.140
   3.396  -1.757  -1.140
   3.583  -1.500  -1.140
   3.739  -1.224  -1.140
   3.863  -0.931  -1.140
   3.952  -0.626  -1.140
   4.006  -0.313  -1.140
   3.972   0.004  -1.450
   3.953   0.321  -1.450
   3.898   0.634  -1.450
   3.807   0.938  -1.450
   3.681   1.229  -1.450
   3.523   1.504  -1.450
   3.333   1.759  -1.450
   3.115   1.990  -1.450
   2.323  -2.503  -1.450
   2.607  -2.360  -1.450
   2.872  -2.186  -1.450
   3.115  -1.982  -1.450
   3.333  -1.751  -1.450
   3.523  -1.496  -1.450
   3.681  -1.221  -1.450
   3.807  -0.930  -1.450
   3.898  -0.626  -1.450
   3.953  -0.313  -1.450
   3.885   0.004  -1.752
   3.866   0.323  -1.752
   3.808   0.636  -1.752
   3.713   0.941  -1.752
   3.582   1.232  -1.752
   3.417   1.505  -1.752
   3.220   1.757  -1.752
   2.995   1.982  -1.752
   1.874  -2.562  -1.752
   2.179  -2.467  -1.752
   2.470  -2.336  -1.752
   2.743  -2.171  -1.752
   2.995  -1.974  -1.752
   3.220  -1.749  -1.752
   3.417  -1.497  -1.752
   3.582  -1.224  -1.752
   3.713  -0.933  -1.752
   3.808  -0.628  -1.752
   3.866  -0.315  -1.752
   3.765   0.004  -2.042
   3.745   0.320  -2.042
   3.685   0.631  -2.042
   3.588   0.933  -2.042
   3.453   1.219  -2.042
   3.283   1.487  -2.042
   3.081   1.731  -2.042
   2.850   1.948  -2.042
   1.715  -2.474  -2.042
   2.022  -2.395  -2.042
   2.316  -2.279  -2.042
   2.594  -2.126  -2.042
   2.850  -1.940  -2.042
   3.081  -1.723  -2.042
   3.283  -1.479  -2.042
   3.453  -1.211  -2.042
   3.588  -0.925  -2.042
   3.685  -0.623  -2.042
   3.745  -0.312  -2.042
   3.613   0.004  -2.317
   3.592   0.320  -2.317
   3.529   0.630  -2.317
   3.425   0.930  -2.317
   3.282   1.212  -2.317
   3.103   1.473  -2.317
   2.890   1.708  -2.317
   2.648   1.913  -2.317
   1.163  -2.366  -2.317
   1.479  -2.355  -2.317
   1.792  -2.302  -2.317
   2.094  -2.208  -2.317
   2.381  -2.075  -2.317
   2.648  -1.905  -2.317
   2.890  -1.700  -2.317
   3.103  -1.465  -2.317
   3.282  -1.204  -2.317
   3.425  -0.922  -2.317
   3.529  -0.622  -2.317
   3.592  -0.312  -2.317
   3.431   0.004  -2.573
   3.408   0.323  -2.573
   3.338   0.635  -2.573
   3.224   0.933  -2.573
   3.068   1.212  -2.573
   2.872   1.465  -2.573
   2.642   1.687  -2.573
   2.382   1.873  -2.573
   0.844  -2.149  -2.573
   1.162  -2.184  -2.573
   1.481  -2.172  -2.573
   1.796  -2.114  -2.573
   2.098  -2.011  -2.573
   2.382  -1.865  -2.573
   2.642  -1.679  -2.573
   2.872  -1.457  -2.573
   3.068  -1.204  -2.573
   3.224  -0.925  -2.573
   3.338  -0.627  -2.573
   3.408  -0.315  -2.573
   3.222   0.004  -2.807
   3.196   0.322  -2.807
   3.120   0.631  -2.807
   2.995   0.924  -2.807
   2.825   1.193  -2.807
   2.614   1.432  -2.807
   2.367   1.633  -2.807
   2.091   1.793  -2.807
   1.793   1.906  -2.807
   0.540  -1.847  -2.807
   0.846  -1.936  -2.807
   1.162  -1.974  -2.807
   1.481  -1.961  -2.807
   1.793  -1.898  -2.807
   2.091  -1.785  -2.807
   2.367  -1.625  -2.807
   2.614  -1.424  -2.807
   2.825  -1.185  -2.807
   2.995  -0.916  -2.807
   3.120  -0.623  -2.807
   3.196  -0.314  -2.807
   2.988   0.004  -3.016
   2.958   0.325  -3.016
   2.870   0.635  -3.016
   2.726   0.923  -3.016
   2.532   1.180  -3.016
   2.294   1.397  -3.016
   2.020   1.567  -3.016
   1.720   1.683  -3.016
   1.403   1.742  -3.016
   0.190  -1.389  -3.016
   0.464  -1.559  -3.016
   0.764  -1.675  -3.016
   1.081  -1.734  -3.016
   1.403  -1.734  -3.016
   1.720  -1.675  -3.016
   2.020  -1.559  -3.016
   2.294  -1.389  -3.016
   2.532  -1.172  -3.016
   2.726  -0.915  -3.016
   2.870  -0.627  -3.016
   2.958  -0.317  -3.016
   2.732   0.004  -3.198
   2.697   0.324  -3.198
   2.594   0.630  -3.198
   2.428   0.906  -3.198
   2.206   1.139  -3.198
   1.940   1.320  -3.198
   1.641   1.439  -3.198
   1.323   1.492  -3.198
   1.001   1.474  -3.198
   0.160  -1.020  -3.198
   0.406  -1.229  -3.198
   0.691  -1.380  -3.198
   1.001  -1.466  -3.198
   1.323  -1.484  -3.198
   1.641  -1.431  -3.198
   1.940  -1.312  -3.198
   2.206  -1.131  -3.198
   2.428  -0.898  -3.198
   2.594  -0.622  -3.198
   2.697  -0.316  -3.198
   2.457   0.004  -3.350
   2.415   0.318  -3.350
   2.294   0.611  -3.350
   2.101   0.863  -3.350
   1.849   1.056  -3.350
   1.556   1.177  -3.350
   1.242   1.219  -3.350
   0.928   1.177  -3.350
   0.190  -0.603  -3.350
   0.383  -0.855  -3.350
   0.635  -1.048  -3.350
   0.928  -1.169  -3.350
   1.242  -1.211  -3.350
   1.556  -1.169  -3.350
   1.849  -1.048  -3.350
   2.101  -0.855  -3.350
   2.294  -0.603  -3.350
   2.415  -0.310  -3.350
   2.167   0.004  -3.470
   2.111   0.320  -3.470
   1.950   0.598  -3.470
   1.704   0.805  -3.470
   1.403   0.915  -3.470
   1.081   0.915  -3.470
   0.780   0.805  -3.470
   0.373  -0.312  -3.470
   0.534  -0.590  -3.470
   0.780  -0.797  -3.470
   1.081  -0.907  -3.470
   1.403  -0.907  -3.470
   1.704  -0.797  -3.470
   1.950  -0.590  -3.470
   2.111  -0.312  -3.470
   1.865   0.004  -3.557
   1.782   0.316  -3.557
   1.554   0.544  -3.557
   1.242   0.627  -3.557
   0.930   0.544  -3.557
   0.702   0.316  -3.557
   0.619   0.004  -3.557
   0.702  -0.308  -3.557
   0.930  -0.536  -3.557
   1.242  -0.619  -3.557
   1.554  -0.536  -3.557
   1.782  -0.308  -3.557
   1.556   0.004  -3.609
   1.399   0.276  -3.609
   1.085   0.276  -3.609
   0.928   0.004  -3.609
   1.085  -0.268  -3.609
   1.399  -0.268  -3.609
   1.242   0.004  -3.627
  -0.584  -2.469   2.869
  -0.275  -2.581   2.869
   0.055  -2.582   2.869
  -0.991  -2.529   2.746
  -0.733  -2.726   2.746
  -0.432  -2.851   2.746
  -0.110  -2.893   2.746
   0.212  -2.851   2.746
   0.513  -2.726   2.746
   0.771  -2.529   2.746
  -1.557  -2.136   2.590
  -1.418  -2.435   2.590
  -1.219  -2.698   2.590
  -0.967  -2.912   2.590
  -0.675  -3.066   2.590
  -0.357  -3.155   2.590
  -0.027  -3.173   2.590
   0.298  -3.119   2.590
   0.605  -2.997   2.590
   0.879  -2.812   2.590
   1.106  -2.572   2.590
  -1.869  -1.977   2.404
  -1.779  -2.294   2.404
  -1.631  -2.590   2.404
  -1.432  -2.854   2.404
  -1.188  -3.076   2.404
  -0.908  -3.250   2.404
  -0.600  -3.369   2.404
  -0.275  -3.430   2.404
   0.055  -3.430   2.404
   0.380  -3.369   2.404
   0.688  -3.250   2.404
   0.968  -3.076   2.404
   1.212  -2.854   2.404
   1.411  -2.590   2.404
   1.559  -2.294   2.404
  -2.133  -1.811   2.189
  -2.080  -2.134   2.189
  -1.977  -2.443   2.189
  -1.825  -2.733   2.189
  -1.629  -2.994   2.189
  -1.393  -3.220   2.189
  -1.125  -3.406   2.189
  -0.830  -3.546   2.189
  -0.516  -3.636   2.189
  -0.192  -3.676   2.189
   0.135  -3.663   2.189
   0.455  -3.597   2.189
   0.760  -3.481   2.189
   1.043  -3.318   2.189
   1.296  -3.112   2.189
   1.512  -2.867   2.189
   1.687  -2.591   2.189
   1.815  -2.291   2.189
  -2.348  -1.812   1.949
  -2.300  -2.136   1.949
  -2.206  -2.450   1.949
  -2.067  -2.746   1.949
  -1.886  -3.019   1.949
  -1.667  -3.263   1.949
  -1.416  -3.473   1.949
  -1.136  -3.644   1.949
  -0.835  -3.772   1.949
  -0.518  -3.855   1.949
  -0.192  -3.890   1.949
   0.135  -3.878   1.949
   0.458  -3.819   1.949
   0.768  -3.713   1.949
   1.059  -3.563   1.949
   1.325  -3.373   1.949
   1.561  -3.145   1.949
   1.761  -2.886   1.949
   1.922  -2.600   1.949
   2.039  -2.294   1.949
   2.110  -1.975   1.949
   2.320  -1.648   1.687
  -2.535  -1.486   1.687
  -2.535  -1.810   1.687
  -2.491  -2.132   1.687
  -2.406  -2.445   1.687
  -2.279  -2.744   1.687
  -2.113  -3.023   1.687
  -1.912  -3.278   1.687
  -1.679  -3.504   1.687
  -1.418  -3.696   1.687
  -1.133  -3.852   1.687
  -0.830  -3.969   1.687
  -0.514  -4.044   1.687
  -0.191  -4.077   1.687
   0.133  -4.066   1.687
   0.453  -4.012   1.687
   0.763  -3.916   1.687
   1.058  -3.779   1.687
   1.331  -3.604   1.687
   1.579  -3.395   1.687
   1.797  -3.154   1.687
   1.981  -2.886   1.687
   2.127  -2.597   1.687
   2.234  -2.290   1.687
   2.298  -1.972   1.687
  -2.696  -1.648   1.405
  -2.675  -1.972   1.405
  -2.615  -2.291   1.405
  -2.514  -2.600   1.405
  -2.376  -2.894   1.405
  -2.202  -3.168   1.405
  -1.995  -3.418   1.405
  -1.758  -3.640   1.405
  -1.496  -3.831   1.405
  -1.211  -3.988   1.405
  -0.909  -4.107   1.405
  -0.595  -4.188   1.405
  -0.272  -4.229   1.405
   0.052  -4.229   1.405
   0.375  -4.188   1.405
   0.689  -4.107   1.405
   0.991  -3.988   1.405
   1.276  -3.831   1.405
   1.538  -3.640   1.405
   1.775  -3.418   1.405
   1.982  -3.168   1.405
   2.156  -2.894   1.405
   2.294  -2.600   1.405
   2.395  -2.291   1.405
   2.455  -1.972   1.405
  -2.799  -1.975   1.108
  -2.740  -2.296   1.108
  -2.643  -2.609   1.108
  -2.509  -2.907   1.108
  -2.339  -3.187   1.108
  -2.138  -3.444   1.108
  -1.906  -3.676   1.108
  -1.649  -3.877   1.108
  -1.369  -4.047   1.108
  -1.071  -4.181   1.108
  -0.758  -4.278   1.108
  -0.437  -4.337   1.108
  -0.110  -4.357   1.108
   0.217  -4.337   1.108
   0.538  -4.278   1.108
   0.851  -4.181   1.108
   1.149  -4.047   1.108
   1.429  -3.877   1.108
   1.686  -3.676   1.108
   1.918  -3.444   1.108
   2.119  -3.187   1.108
   2.289  -2.907   1.108
   2.423  -2.609   1.108
   2.520  -2.296   1.108
   2.579  -1.975   1.108
  -2.833  -2.293   0.799
  -2.739  -2.605   0.799
  -2.610  -2.904   0.799
  -2.448  -3.186   0.799
  -2.253  -3.447   0.799
  -2.030  -3.683   0.799
  -1.781  -3.892   0.799
  -1.509  -4.071   0.799
  -1.218  -4.217   0.799
  -0.912  -4.328   0.799
  -0.596  -4.404   0.799
  -0.273  -4.441   0.799
   0.053  -4.441   0.799
   0.376  -4.404   0.799
   0.692  -4.328   0.799
   0.998  -4.217   0.799
   1.289  -4.071   0.799
   1.561  -3.892   0.799
   1.810  -3.683   0.799
   2.033  -3.447   0.799
   2.228  -3.186   0.799
   2.390  -2.904   0.799
   2.519  -2.605   0.799
   2.613  -2.293   0.799
   2.669  -1.973   0.799
  -2.846  -2.451   0.481
  -2.737  -2.758   0.481
  -2.593  -3.050   0.481
  -2.417  -3.324   0.481
  -2.211  -3.576   0.481
  -1.978  -3.803   0.481
  -1.720  -4.002   0.481
  -1.441  -4.170   0.481
  -1.145  -4.306   0.481
  -0.835  -4.406   0.481
  -0.516  -4.471   0.481
  -0.191  -4.499   0.481
   0.134  -4.489   0.481
   0.456  -4.443   0.481
   0.771  -4.360   0.481
   1.075  -4.242   0.481
   1.363  -4.090   0.481
   1.632  -3.906   0.481
   1.878  -3.693   0.481
   2.098  -3.453   0.481
   2.289  -3.190   0.481
   2.449  -2.906   0.481
   2.576  -2.606   0.481
   2.668  -2.294   0.481
  -2.819  -2.596   0.160
  -2.696  -2.893   0.160
  -2.540  -3.175   0.160
  -2.354  -3.437   0.160
  -2.139  -3.677   0.160
  -1.899  -3.892   0.160
  -1.637  -4.078   0.160
  -1.355  -4.234   0.160
  -1.058  -4.357   0.160
  -0.749  -4.446   0.160
  -0.431  -4.500   0.160
  -0.110  -4.518   0.160
   0.211  -4.500   0.160
   0.529  -4.446   0.160
   0.838  -4.357   0.160
   1.135  -4.234   0.160
   1.417  -4.078   0.160
   1.679  -3.892   0.160
   1.919  -3.677   0.160
   2.134  -3.437   0.160
   2.320  -3.175   0.160
   2.476  -2.893   0.160
   2.599  -2.596   0.160
   2.688  -2.287   0.160
  -2.737  -2.758  -0.161
  -2.593  -3.050  -0.161
  -2.417  -3.324  -0.161
  -2.211  -3.576  -0.161
  -1.978  -3.803  -0.161
  -1.720  -4.002  -0.161
  -1.441  -4.170  -0.161
  -1.145  -4.306  -0.161
  -0.835  -4.406  -0.161
  -0.516  -4.471  -0.161
  -0.191  -4.499  -0.161
   0.134  -4.489  -0.161
   0.456  -4.443  -0.161
   0.771  -4.360  -0.161
   1.075  -4.242  -0.161
   1.363  -4.090  -0.161
   1.632  -3.906  -0.161
   1.878  -3.693  -0.161
   2.098  -3.453  -0.161
   2.289  -3.190  -0.161
   2.449  -2.906  -0.161
   2.576  -2.606  -0.161
  -2.610  -2.904  -0.479
  -2.448  -3.186  -0.479
  -2.253  -3.447  -0.479
  -2.030  -3.683  -0.479
  -1.781  -3.892  -0.479
  -1.509  -4.071  -0.479
  -1.218  -4.217  -0.479
  -0.912  -4.328  -0.479
  -0.596  -4.404  -0.479
  -0.273  -4.441  -0.479
   0.053  -4.441  -0.479
   0.376  -4.404  -0.479
   0.692  -4.329  -0.479
   0.998  -4.217  -0.479
   1.289  -4.071  -0.479
   1.561  -3.892  -0.479
   1.810  -3.683  -0.479
   2.033  -3.447  -0.479
   2.228  -3.186  -0.479
   2.390  -2.904  -0.479
   2.519  -2.605  -0.479
  -2.509  -2.907  -0.788
  -2.339  -3.187  -0.788
  -2.138  -3.444  -0.788
  -1.906  -3.676  -0.788
  -1.649  -3.877  -0.788
  -1.369  -4.047  -0.788
  -1.071  -4.181  -0.788
  -0.758  -4.278  -0.788
  -0.437  -4.337  -0.788
  -0.110  -4.357  -0.788
   0.217  -4.337  -0.788
   0.538  -4.278  -0.788
   0.851  -4.181  -0.788
   1.149  -4.047  -0.788
   1.429  -3.877  -0.788
   1.686  -3.676  -0.788
   1.918  -3.444  -0.788
   2.119  -3.187  -0.788
   2.289  -2.907  -0.788
   2.423  -2.609  -0.788
  -2.376  -2.894  -1.085
  -2.202  -3.168  -1.085
  -1.995  -3.418  -1.085
  -1.758  -3.640  -1.085
  -1.496  -3.831  -1.085
  -1.211  -3.988  -1.085
  -0.909  -4.107  -1.085
  -0.595  -4.188  -1.085
  -0.272  -4.229  -1.085
   0.052  -4.229  -1.085
   0.375  -4.188  -1.085
   0.689  -4.107  -1.085
   0.991  -3.988  -1.085
   1.276  -3.831  -1.085
   1.538  -3.640  -1.085
   1.775  -3.418  -1.085
   1.982  -3.168  -1.085
   2.156  -2.894  -1.085
   2.294  -2.600  -1.085
  -2.279  -2.744  -1.367
  -2.113  -3.023  -1.367
  -1.912  -3.278  -1.367
  -1.679  -3.504  -1.367
  -1.418  -3.696  -1.367
  -1.133  -3.852  -1.367
  -0.830  -3.969  -1.367
  -0.514  -4.044  -1.367
  -0.191  -4.077  -1.367
   0.133  -4.066  -1.367
   0.453  -4.012  -1.367
   0.763  -3.916  -1.367
   1.058  -3.779  -1.367
   1.331  -3.604  -1.367
   1.579  -3.395  -1.367
   1.797  -3.154  -1.367
   1.981  -2.886  -1.367
  -2.067  -2.746  -1.629
  -1.886  -3.019  -1.629
  -1.667  -3.263  -1.629
  -1.416  -3.473  -1.629
  -1.136  -3.644  -1.629
  -0.835  -3.772  -1.629
  -0.518  -3.855  -1.629
  -0.192  -3.890  -1.629
   0.135  -3.878  -1.629
   0.458  -3.819  -1.629
   0.768  -3.713  -1.629
   1.059  -3.563  -1.629
   1.325  -3.373  -1.629
   1.561  -3.145  -1.629
   1.761  -2.886  -1.629
   1.922  -2.600  -1.629
  -1.825  -2.733  -1.869
  -1.629  -2.994  -1.869
  -1.393  -3.220  -1.869
  -1.125  -3.406  -1.869
  -0.830  -3.546  -1.869
  -0.516  -3.636  -1.869
  -0.192  -3.676  -1.869
   0.135  -3.663  -1.869
   0.455  -3.597  -1.869
   0.760  -3.481  -1.869
   1.043  -3.318  -1.869
   1.296  -3.112  -1.869
   1.512  -2.867  -1.869
   1.687  -2.591  -1.869
  -1.631  -2.590  -2.084
  -1.432  -2.854  -2.084
  -1.188  -3.076  -2.084
  -0.908  -3.250  -2.084
  -0.600  -3.369  -2.084
  -0.275  -3.430  -2.084
   0.055  -3.430  -2.084
   0.380  -3.369  -2.084
   0.688  -3.250  -2.084
   0.968  -3.076  -2.084
   1.212  -2.854  -2.084
   1.411  -2.590  -2.084
  -1.418  -2.435  -2.270
  -1.219  -2.698  -2.270
  -0.967  -2.912  -2.270
  -0.675  -3.066  -2.270
  -0.357  -3.155  -2.270
  -0.027  -3.173  -2.270
   0.298  -3.119  -2.270
   0.605  -2.997  -2.270
   0.879  -2.812  -2.270
   1.106  -2.572  -2.270
  -1.188  -2.271  -2.426
  -0.991  -2.529  -2.426
  -0.733  -2.726  -2.426
  -0.432  -2.851  -2.426
  -0.110  -2.893  -2.426
   0.212  -2.851  -2.426
   0.513  -2.726  -2.426
   0.771  -2.529  -2.426
  -0.836  -2.257  -2.549
  -0.584  -2.469  -2.549
  -0.275  -2.582  -2.549
   0.055  -2.582  -2.549
   0.364  -2.469  -2.549
   0.616  -2.257  -2.549
  -0.663  -1.967  -2.638
  -0.429  -2.201  -2.638
  -0.110  -2.287  -2.638
   0.209  -2.201  -2.638
  -0.271  -1.926  -2.692
   0.051  -1.926  -2.692
  -2.779   0.646   1.742
  -2.915   0.354   1.742
  -2.984   0.039   1.742
  -2.984  -0.283   1.742
  -2.915  -0.598   1.742
  -2.779  -0.890   1.742
  -2.585  -1.146   1.742
  -3.131   0.509   1.560
  -3.219   0.199   1.560
  -3.249  -0.122   1.560
  -3.219  -0.443   1.560
  -3.131  -0.753   1.560
  -2.987  -1.041   1.560
  -2.793  -1.298   1.560
  -3.476   0.037   1.351
  -3.476  -0.281   1.351
  -3.425  -0.596   1.351
  -3.324  -0.898   1.351
  -3.176  -1.180   1.351
  -2.985  -1.435   1.351
  -2.755  -1.656   1.351
  -3.686  -0.282   1.117
  -3.640  -0.598   1.117
  -3.548  -0.904   1.117
  -3.412  -1.193   1.117
  -3.236  -1.460   1.117
  -3.022  -1.698   1.117
  -3.826  -0.594   0.861
  -3.743  -0.900   0.861
  -3.619  -1.191   0.861
  -3.458  -1.464   0.861
  -3.261  -1.712   0.861
  -3.034  -1.932   0.861
  -3.946  -0.749   0.586
  -3.849  -1.051   0.586
  -3.714  -1.337   0.586
  -3.544  -1.605   0.586
  -3.342  -1.849   0.586
  -3.111  -2.066   0.586
  -3.974  -1.059   0.296
  -3.843  -1.350   0.296
  -3.678  -1.623   0.296
  -3.481  -1.875   0.296
  -3.256  -2.100   0.296
  -3.004  -2.297   0.296
  -3.942  -1.347  -0.006
  -3.784  -1.622  -0.006
  -3.594  -1.877  -0.006
  -3.376  -2.108  -0.006
  -3.133  -2.312  -0.006
  -2.868  -2.486  -0.006
  -3.754  -1.757  -0.315
  -3.553  -2.003  -0.315
  -3.325  -2.225  -0.315
  -3.074  -2.419  -0.315
  -2.801  -2.583  -0.315
  -3.692  -1.868  -0.629
  -3.483  -2.102  -0.629
  -3.249  -2.311  -0.629
  -2.993  -2.493  -0.629
  -2.718  -2.645  -0.629
  -3.325  -2.225  -0.942
  -3.074  -2.419  -0.942
  -2.801  -2.583  -0.942
  -3.133  -2.312  -1.252
  -2.868  -2.486  -1.252
  -2.584  -2.629  -1.252
  -3.004  -2.297  -1.554
  -2.731  -2.462  -1.554
  -2.440  -2.593  -1.554
  -2.855  -2.252  -1.844
  -2.577  -2.405  -1.844
  -2.283  -2.521  -1.844
  -1.976  -2.600  -1.844
  -2.501  -2.273  -2.119
  -2.205  -2.386  -2.119
  -1.897  -2.460  -2.119
  -2.210  -2.194  -2.375
  -1.901  -2.275  -2.375
  -1.583  -2.310  -2.375
  -1.899  -2.062  -2.609
  -1.583  -2.100  -2.609
  -1.264  -2.087  -2.609
  -0.952  -2.024  -2.609
  -1.664  -1.860  -2.818
  -1.342  -1.860  -2.818
  -1.025  -1.801  -2.818
  -0.725  -1.685  -2.818
  -0.805  -1.438  -3.000
  -3.451   0.508   1.416
  -3.715   0.329   1.248
  -4.052   0.501   1.047
  -3.954   0.158   1.047
  -3.795  -0.161   1.047
  -4.337   0.680   0.815
  -4.280   0.331   0.815
  -4.169  -0.003   0.815
  -4.005  -0.316   0.815
  -4.569   0.679   0.556
  -4.518   0.329   0.556
  -4.416  -0.010   0.556
  -4.266  -0.330   0.556
  -4.070  -0.625   0.556
  -4.771   0.681   0.272
  -4.724   0.333   0.272
  -4.632  -0.005   0.272
  -4.495  -0.328   0.272
  -4.316  -0.630   0.272
  -4.099  -0.905   0.272
  -4.945   0.856  -0.032
  -4.923   0.506  -0.032
  -5.057   1.209  -0.353
  -5.093   1.553  -0.687
  -5.108   1.724  -1.030
  -5.078   1.880  -1.377
  -4.834   2.371  -1.724
  -4.990   2.055  -1.724
  -1.976   3.873  -2.067
  -4.467   2.799  -2.067
  -4.677   2.517  -2.067
  -4.853   2.212  -2.067
  -2.152   3.782  -2.401
  -2.505   3.761  -2.401
  -2.852   3.697  -2.401
  -3.190   3.592  -2.401
  -3.512   3.447  -2.401
  -3.814   3.264  -2.401
  -4.092   3.046  -2.401
  -4.342   2.796  -2.401
  -4.560   2.518  -2.401
  -2.675   3.600  -2.722
  -3.015   3.512  -2.722
  -3.341   3.383  -2.722
  -3.649   3.214  -2.722
  -3.932   3.008  -2.722
  -4.188   2.768  -2.722
  -4.412   2.498  -2.722
  -1.977  -1.931  -2.722
  -2.930   3.363  -3.026
  -3.257   3.237  -3.026
  -3.564   3.068  -3.026
  -3.847   2.860  -3.026
  -4.099   2.617  -3.026
  -4.316   2.342  -3.026
  -1.889  -1.756  -3.026
  -1.544  -1.697  -3.026
  -1.209  -1.593  -3.026
  -0.891  -1.446  -3.026
  -0.595  -1.257  -3.026
  -2.935   3.150  -3.310
  -3.260   3.011  -3.310
  -3.562   2.827  -3.310
  -3.834   2.601  -3.310
  -4.070   2.337  -3.310
  -1.887  -1.553  -3.310
  -1.539  -1.489  -3.310
  -1.204  -1.375  -3.310
  -0.889  -1.213  -3.310
  -0.602  -1.007  -3.310
  -3.248   2.754  -3.569
  -3.538   2.554  -3.569
  -3.793   2.310  -3.569
  -4.005   2.028  -3.569
  -1.888  -1.320  -3.569
  -1.542  -1.249  -3.569
  -1.212  -1.124  -3.569
  -0.907  -0.948  -3.569
  -3.317   2.398  -3.801
  -3.580   2.158  -3.801
  -3.795   1.874  -3.801
  -1.974  -1.069  -3.801
  -1.623  -1.003  -3.801
  -1.290  -0.874  -3.801
  -3.349   1.990  -4.002
  -3.565   1.706  -4.002
  -2.063  -0.791  -4.002
  -1.711  -0.733  -4.002
  -1.379  -0.601  -4.002
  -3.103   1.807  -4.170
  -3.317   1.529  -4.170
  -2.152  -0.489  -4.170
  -1.804  -0.443  -4.170
  -3.114   1.206  -4.303
  -2.330  -0.152  -4.303
  -2.842   0.856  -4.399
  -2.497   0.259  -4.399
  -2.989   1.970   1.773
  -3.067   1.681   1.773
  -2.989   1.392   1.773
  -2.777   1.180   1.773
  -2.917   2.425   1.692
  -3.146   2.233   1.692
  -3.295   1.975   1.692
  -3.347   1.681   1.692
  -3.295   1.387   1.692
  -3.146   1.129   1.692
  -2.917   0.937   1.692
  -2.780   2.771   1.581
  -3.052   2.658   1.581
  -3.286   2.479   1.581
  -3.465   2.245   1.581
  -3.578   1.973   1.581
  -3.616   1.681   1.581
  -3.578   1.389   1.581
  -3.465   1.117   1.581
  -3.286   0.883   1.581
  -2.413   3.062   1.439
  -2.712   3.046   1.439
  -3.000   2.966   1.439
  -3.264   2.826   1.439
  -3.492   2.632   1.439
  -3.673   2.394   1.439
  -3.799   2.123   1.439
  -3.863   1.831   1.439
  -3.863   1.531   1.439
  -3.799   1.239   1.439
  -3.673   0.968   1.439
  -3.492   0.730   1.439
  -2.338   3.295   1.271
  -2.638   3.295   1.271
  -2.932   3.240   1.271
  -3.211   3.132   1.271
  -3.465   2.975   1.271
  -3.686   2.773   1.271
  -3.866   2.534   1.271
  -4.000   2.267   1.271
  -4.081   1.979   1.271
  -4.109   1.681   1.271
  -4.081   1.383   1.271
  -4.000   1.095   1.271
  -3.866   0.828   1.271
  -2.266   3.506   1.076
  -2.562   3.518   1.076
  -2.856   3.482   1.076
  -3.140   3.400   1.076
  -3.407   3.273   1.076
  -3.651   3.105   1.076
  -3.864   2.900   1.076
  -4.042   2.664   1.076
  -4.179   2.402   1.076
  -4.273   2.121   1.076
  -4.321   1.829   1.076
  -4.321   1.533   1.076
  -4.273   1.241   1.076
  -4.179   0.960   1.076
  -4.042   0.698   1.076
  -2.266   3.702   0.859
  -2.562   3.712   0.859
  -2.857   3.680   0.859
  -3.144   3.605   0.859
  -3.417   3.489   0.859
  -3.671   3.334   0.859
  -3.899   3.144   0.859
  -4.097   2.923   0.859
  -4.261   2.676   0.859
  -4.387   2.407   0.859
  -4.472   2.123   0.859
  -4.515   1.829   0.859
  -4.515   1.533   0.859
  -4.472   1.239   0.859
  -4.387   0.955   0.859
  -1.978   3.823   0.621
  -2.268   3.871   0.621
  -2.562   3.881   0.621
  -2.854   3.852   0.621
  -3.140   3.784   0.621
  -3.415   3.678   0.621
  -3.673   3.537   0.621
  -3.909   3.362   0.621
  -4.121   3.158   0.621
  -4.303   2.927   0.621
  -4.453   2.674   0.621
  -4.568   2.403   0.621
  -4.645   2.120   0.621
  -4.685   1.828   0.621
  -4.685   1.534   0.621
  -4.645   1.243   0.621
  -4.568   0.959   0.621
  -2.049   3.982   0.366
  -2.341   4.019   0.366
  -2.635   4.019   0.366
  -2.927   3.982   0.366
  -3.212   3.909   0.366
  -3.485   3.801   0.366
  -3.743   3.659   0.366
  -3.981   3.486   0.366
  -4.196   3.285   0.366
  -4.383   3.058   0.366
  -4.541   2.810   0.366
  -4.666   2.543   0.366
  -4.757   2.264   0.366
  -4.812   1.975   0.366
  -4.831   1.681   0.366
  -4.812   1.387   0.366
  -4.757   1.098   0.366
  -1.901   4.064   0.097
  -2.192   4.117   0.097
  -2.488   4.135   0.097
  -2.784   4.117   0.097
  -3.075   4.064   0.097
  -3.358   3.976   0.097
  -3.628   3.854   0.097
  -3.882   3.701   0.097
  -4.115   3.518   0.097
  -4.325   3.308   0.097
  -4.508   3.075   0.097
  -4.661   2.821   0.097
  -4.783   2.551   0.097
  -4.871   2.268   0.097
  -4.924   1.977   0.097
  -4.942   1.681   0.097
  -4.924   1.385   0.097
  -4.871   1.094   0.097
  -1.761   4.109  -0.183
  -2.048   4.177  -0.183
  -2.341   4.212  -0.183
  -2.635   4.212  -0.183
  -2.928   4.177  -0.183
  -3.215   4.109  -0.183
  -3.492   4.009  -0.183
  -3.755   3.876  -0.183
  -4.002   3.714  -0.183
  -4.227   3.525  -0.183
  -4.430   3.310  -0.183
  -4.606   3.074  -0.183
  -4.753   2.819  -0.183
  -4.870   2.548  -0.183
  -4.954   2.266  -0.183
  -5.006   1.975  -0.183
  -5.023   1.681  -0.183
  -5.006   1.387  -0.183
  -1.690   4.138  -0.471
  -1.975   4.213  -0.471
  -2.267   4.255  -0.471