 $system timlim=999888777
         mwords=100 $end
 $contrl exetyp=run
         runtyp=energy scftyp=rhf
         icharg=-1 mult=1 units=angs coord=unique
         maxit=50 ispher=1 qmttol=1d-6 icut=12 itol=22 $end
 $scf    dirscf=.t. diis=.t. soscf=.f.
         fdiff=.f. conv=1d-6
         npreo(1)=0,-1,1,9999 $end
 $elmom  iemom=3 iemint=0 iamm=9 cum=.t. ibond=0 $end
 $basis  gbasis=n311 ngauss=6
         ndfunc=1 npfunc=1 diffsp=.t. diffs=.t. $end
 $DATA
TS1a_hfd_irc200_all_revmov.pdb
C1
P     15.0    -0.04200   0.01600  -0.02600 
O      8.0    -0.11400   0.61500   1.40600 
O      8.0     0.95200   0.58400  -0.92200 
F      9.0     0.26000  -1.46700   0.34400 
O      8.0    -1.47600  -0.16200  -0.59900 
C      6.0    -2.15200   0.85600  -1.37700 
H      1.0    -2.37400   1.72800  -0.76700 
H      1.0    -1.52800   1.11200  -2.22300 
H      1.0    -3.05900   0.38000  -1.71900 
C      6.0    -0.08000   2.03800   1.67300 
H      1.0    -0.02400   2.11200   2.74900 
H      1.0     0.81600   2.45000   1.22900 
H      1.0    -0.97400   2.52700   1.29300 
O      8.0    -2.54700   3.31600   0.39600 
H      1.0    -3.15400   4.03300   0.53000 
 $END


