 $system timlim=999888777
         mwords=100 $end
 $contrl exetyp=run
         runtyp=energy scftyp=rhf
         icharg=-1 mult=1 units=angs coord=unique
         maxit=50 ispher=1 qmttol=1d-6 icut=12 itol=22 $end
 $scf    dirscf=.t. diis=.t. soscf=.f.
         fdiff=.f. conv=1d-6
         npreo(1)=0,-1,1,9999 $end
 $elmom  iemom=3 iemint=0 iamm=9 cum=.t. ibond=0 $end
 $basis  gbasis=n311 ngauss=6
         ndfunc=1 npfunc=1 diffsp=.t. diffs=.t. $end
 $DATA
TS1a_hfd_irc200_all_revmov.pdb
C1
P     15.0    -0.04200   0.01600  -0.02600 
O      8.0    -0.11600   0.60100   1.41100 
O      8.0     0.94900   0.59500  -0.91700 
F      9.0     0.26500  -1.47100   0.33000 
O      8.0    -1.47600  -0.16200  -0.59900 
C      6.0    -2.15200   0.85600  -1.37700 
H      1.0    -2.36200   1.73300  -0.77000 
H      1.0    -1.53400   1.10200  -2.23000 
H      1.0    -3.06600   0.38400  -1.70700 
C      6.0    -0.07500   2.02200   1.69200 
H      1.0    -0.03600   2.08500   2.77000 
H      1.0     0.83100   2.43000   1.26600 
H      1.0    -0.96000   2.52100   1.30400 
O      8.0    -2.51700   3.32100   0.39200 
H      1.0    -3.09300   4.06800   0.49900 
 $END


