 $system timlim=999888777
         mwords=100 $end
 $contrl exetyp=run
         runtyp=energy scftyp=rhf
         icharg=-1 mult=1 units=angs coord=unique
         maxit=50 ispher=1 qmttol=1d-6 icut=12 itol=22 $end
 $scf    dirscf=.t. diis=.t. soscf=.f.
         fdiff=.f. conv=1d-6
         npreo(1)=0,-1,1,9999 $end
 $elmom  iemom=3 iemint=0 iamm=9 cum=.t. ibond=0 $end
 $basis  gbasis=n311 ngauss=6
         ndfunc=1 npfunc=1 diffsp=.t. diffs=.t. $end
 $DATA
TS1a_hfd_irc200_all_revmov.pdb
C1
P     15.0    -0.04200   0.01600  -0.02600 
O      8.0    -0.11700   0.59300   1.41400 
O      8.0     0.94800   0.60000  -0.91500 
F      9.0     0.26800  -1.47200   0.32300 
O      8.0    -1.47600  -0.16200  -0.59900 
C      6.0    -2.15200   0.85600  -1.37700 
H      1.0    -2.35500   1.73600  -0.77300 
H      1.0    -1.53700   1.09700  -2.23400 
H      1.0    -3.06900   0.38700  -1.70100 
C      6.0    -0.07200   2.01300   1.70300 
H      1.0    -0.04300   2.07000   2.78200 
H      1.0     0.84000   2.41900   1.28700 
H      1.0    -0.95100   2.51800   1.31000 
O      8.0    -2.50000   3.32500   0.39000 
H      1.0    -3.05800   4.08700   0.48100 
 $END


