 $system timlim=999888777
         mwords=100 $end
 $contrl exetyp=run
         runtyp=energy scftyp=rhf
         icharg=-1 mult=1 units=angs coord=unique
         maxit=50 ispher=1 qmttol=1d-6 icut=12 itol=22 $end
 $scf    dirscf=.t. diis=.t. soscf=.f.
         fdiff=.f. conv=1d-6
         npreo(1)=0,-1,1,9999 $end
 $elmom  iemom=3 iemint=0 iamm=9 cum=.t. ibond=0 $end
 $basis  gbasis=n311 ngauss=6
         ndfunc=1 npfunc=1 diffsp=.t. diffs=.t. $end
 $DATA
TS1a_hfd_irc200_all_revmov.pdb
C1
P     15.0    -0.04200   0.01600  -0.02600 
O      8.0    -0.11800   0.58100   1.41900 
O      8.0     0.94700   0.60900  -0.91000 
F      9.0     0.27200  -1.47400   0.31100 
O      8.0    -1.47600  -0.16200  -0.59900 
C      6.0    -2.15200   0.85600  -1.37700 
H      1.0    -2.34400   1.74200  -0.77700 
H      1.0    -1.54200   1.08700  -2.24100 
H      1.0    -3.07600   0.39100  -1.69000 
C      6.0    -0.06800   1.99700   1.72100 
H      1.0    -0.05400   2.04500   2.80100 
H      1.0     0.85400   2.40000   1.32200 
H      1.0    -0.93500   2.51300   1.31800 
O      8.0    -2.47100   3.33100   0.38600 
H      1.0    -2.99300   4.12100   0.44800 
 $END


