 $system timlim=999888777
         mwords=100 $end
 $contrl exetyp=run
         runtyp=energy scftyp=rhf
         icharg=-1 mult=1 units=angs coord=unique
         maxit=50 ispher=1 qmttol=1d-6 icut=12 itol=22 $end
 $scf    dirscf=.t. diis=.t. soscf=.f.
         fdiff=.f. conv=1d-6
         npreo(1)=0,-1,1,9999 $end
 $elmom  iemom=3 iemint=0 iamm=9 cum=.t. ibond=0 $end
 $basis  gbasis=n311 ngauss=6
         ndfunc=1 npfunc=1 diffsp=.t. diffs=.t. $end
 $DATA
TS1a_hfd_irc200_all_revmov.pdb
C1
P     15.0    -0.04200   0.01500  -0.02700 
O      8.0    -0.11900   0.56300   1.42600 
O      8.0     0.94400   0.62200  -0.90400 
F      9.0     0.27800  -1.47700   0.29500 
O      8.0    -1.47600  -0.16200  -0.59900 
C      6.0    -2.15200   0.85600  -1.37700 
H      1.0    -2.32500   1.75100  -0.78300 
H      1.0    -1.55300   1.07200  -2.25100 
H      1.0    -3.08400   0.39800  -1.67300 
C      6.0    -0.05900   1.97500   1.74600 
H      1.0    -0.07100   2.00900   2.82600 
H      1.0     0.87700   2.37000   1.37400 
H      1.0    -0.90900   2.50700   1.32800 
O      8.0    -2.42500   3.34100   0.38000 
H      1.0    -2.88700   4.17000   0.39200 
 $END


