 $system timlim=999888777
         mwords=100 $end
 $contrl exetyp=run
         runtyp=energy scftyp=rhf
         icharg=-1 mult=1 units=angs coord=unique
         maxit=50 ispher=1 qmttol=1d-6 icut=12 itol=22 $end
 $scf    dirscf=.t. diis=.t. soscf=.f.
         fdiff=.f. conv=1d-6
         npreo(1)=0,-1,1,9999 $end
 $elmom  iemom=3 iemint=0 iamm=9 cum=.t. ibond=0 $end
 $basis  gbasis=n311 ngauss=6
         ndfunc=1 npfunc=1 diffsp=.t. diffs=.t. $end
 $DATA
TS1a_hfd_irc200_all_revmov.pdb
C1
P     15.0    -0.04200   0.01500  -0.02600 
O      8.0    -0.12300   0.53800   1.43600 
O      8.0     0.94000   0.63900  -0.89400 
F      9.0     0.28500  -1.48200   0.27000 
O      8.0    -1.47700  -0.16100  -0.59900 
C      6.0    -2.15200   0.85600  -1.37700 
H      1.0    -2.29600   1.76200  -0.79400 
H      1.0    -1.56800   1.04900  -2.26700 
H      1.0    -3.09800   0.41000  -1.64500 
C      6.0    -0.04900   1.94200   1.78200 
H      1.0    -0.10000   1.95800   2.86200 
H      1.0     0.90600   2.32500   1.45100 
H      1.0    -0.87500   2.49700   1.34300 
O      8.0    -2.35800   3.35400   0.36800 
H      1.0    -2.72000   4.22900   0.30800 
 $END


