 $system timlim=999888777
         mwords=100 $end
 $contrl exetyp=run
         runtyp=energy scftyp=rhf
         icharg=-1 mult=1 units=angs coord=unique
         maxit=50 ispher=1 qmttol=1d-6 icut=12 itol=22 $end
 $scf    dirscf=.t. diis=.t. soscf=.f.
         fdiff=.f. conv=1d-6
         npreo(1)=0,-1,1,9999 $end
 $elmom  iemom=3 iemint=0 iamm=9 cum=.t. ibond=0 $end
 $basis  gbasis=n311 ngauss=6
         ndfunc=1 npfunc=1 diffsp=.t. diffs=.t. $end
 $DATA
TS1a_hfd_irc200_all_revmov.pdb
C1
P     15.0    -0.04100   0.01400  -0.02500 
O      8.0    -0.12500   0.51600   1.44400 
O      8.0     0.93700   0.65300  -0.88600 
F      9.0     0.29300  -1.48600   0.25000 
O      8.0    -1.47700  -0.16100  -0.59900 
C      6.0    -2.15200   0.85600  -1.37700 
H      1.0    -2.27100   1.77200  -0.80400 
H      1.0    -1.58200   1.02800  -2.28000 
H      1.0    -3.11000   0.42000  -1.62200 
C      6.0    -0.04100   1.91300   1.81200 
H      1.0    -0.12500   1.91500   2.88900 
H      1.0     0.93000   2.28600   1.51600 
H      1.0    -0.84300   2.48800   1.35400 
O      8.0    -2.29800   3.36500   0.35600 
H      1.0    -2.57000   4.26600   0.23700 
 $END


