 $system timlim=999888777
         mwords=100 $end
 $contrl exetyp=run
         runtyp=energy scftyp=rhf
         icharg=-1 mult=1 units=angs coord=unique
         maxit=50 ispher=1 qmttol=1d-6 icut=12 itol=22 $end
 $scf    dirscf=.t. diis=.t. soscf=.f.
         fdiff=.f. conv=1d-6
         npreo(1)=0,-1,1,9999 $end
 $elmom  iemom=3 iemint=0 iamm=9 cum=.t. ibond=0 $end
 $basis  gbasis=n311 ngauss=6
         ndfunc=1 npfunc=1 diffsp=.t. diffs=.t. $end
 $DATA
TS1a_hfd_irc200_all_revmov.pdb
C1
P     15.0    -0.04200   0.01300  -0.02500 
O      8.0    -0.12700   0.48100   1.45500 
O      8.0     0.93300   0.67500  -0.87300 
F      9.0     0.30200  -1.49100   0.21900 
O      8.0    -1.47700  -0.16100  -0.59900 
C      6.0    -2.15200   0.85600  -1.37700 
H      1.0    -2.23600   1.78400  -0.81700 
H      1.0    -1.60200   0.99900  -2.29800 
H      1.0    -3.12400   0.43600  -1.58800 
C      6.0    -0.02700   1.86700   1.85900 
H      1.0    -0.15700   1.84900   2.93100 
H      1.0     0.96500   2.22100   1.61300 
H      1.0    -0.79400   2.47100   1.37900 
O      8.0    -2.20300   3.37400   0.34300 
H      1.0    -2.34300   4.29200   0.14900 
 $END


