 $system timlim=999888777
         mwords=100 $end
 $contrl exetyp=run
         runtyp=energy scftyp=rhf
         icharg=-1 mult=1 units=angs coord=unique
         maxit=50 ispher=1 qmttol=1d-6 icut=12 itol=22 $end
 $scf    dirscf=.t. diis=.t. soscf=.f.
         fdiff=.f. conv=1d-6
         npreo(1)=0,-1,1,9999 $end
 $elmom  iemom=3 iemint=0 iamm=9 cum=.t. ibond=0 $end
 $basis  gbasis=n311 ngauss=6
         ndfunc=1 npfunc=1 diffsp=.t. diffs=.t. $end
 $DATA
TS1a_hfd_irc200_all_revmov.pdb
C1
P     15.0    -0.04200   0.01100  -0.02500 
O      8.0    -0.13000   0.44200   1.46800 
O      8.0     0.92900   0.69700  -0.85800 
F      9.0     0.31200  -1.49600   0.18300 
O      8.0    -1.47700  -0.16100  -0.60000 
C      6.0    -2.15200   0.85600  -1.37700 
H      1.0    -2.20400   1.79400  -0.82800 
H      1.0    -1.62200   0.97500  -2.31300 
H      1.0    -3.13600   0.45100  -1.56000 
C      6.0    -0.01000   1.81500   1.90900 
H      1.0    -0.17900   1.77300   2.97500 
H      1.0     1.00000   2.14900   1.70900 
H      1.0    -0.74200   2.44800   1.41500 
O      8.0    -2.10100   3.37200   0.33800 
H      1.0    -2.11900   4.28500   0.08100 
 $END


