 $system timlim=999888777
         mwords=100 $end
 $contrl exetyp=run
         runtyp=energy scftyp=rhf
         icharg=-1 mult=1 units=angs coord=unique
         maxit=50 ispher=1 qmttol=1d-6 icut=12 itol=22 $end
 $scf    dirscf=.t. diis=.t. soscf=.f.
         fdiff=.f. conv=1d-6
         npreo(1)=0,-1,1,9999 $end
 $elmom  iemom=3 iemint=0 iamm=9 cum=.t. ibond=0 $end
 $basis  gbasis=n311 ngauss=6
         ndfunc=1 npfunc=1 diffsp=.t. diffs=.t. $end
 $DATA
TS1a_hfd_irc200_all_revmov.pdb
C1
P     15.0    -0.04200   0.00900  -0.02400 
O      8.0    -0.13000   0.39600   1.48000 
O      8.0     0.92400   0.72200  -0.84000 
F      9.0     0.32300  -1.50100   0.14400 
O      8.0    -1.47700  -0.16100  -0.60000 
C      6.0    -2.15200   0.85600  -1.37700 
H      1.0    -2.18200   1.80000  -0.83500 
H      1.0    -1.63500   0.95800  -2.32200 
H      1.0    -3.14400   0.46000  -1.54000 
C      6.0     0.01300   1.75200   1.96700 
H      1.0    -0.18700   1.68400   3.02600 
H      1.0     1.03700   2.06400   1.80300 
H      1.0    -0.69000   2.41600   1.46800 
O      8.0    -2.00400   3.34900   0.35200 
H      1.0    -1.91300   4.24500   0.05300 
 $END


