 $system timlim=999888777
         mwords=100 $end
 $contrl exetyp=run
         runtyp=energy scftyp=rhf
         icharg=-1 mult=1 units=angs coord=unique
         maxit=50 ispher=1 qmttol=1d-6 icut=12 itol=22 $end
 $scf    dirscf=.t. diis=.t. soscf=.f.
         fdiff=.f. conv=1d-6
         npreo(1)=0,-1,1,9999 $end
 $elmom  iemom=3 iemint=0 iamm=9 cum=.t. ibond=0 $end
 $basis  gbasis=n311 ngauss=6
         ndfunc=1 npfunc=1 diffsp=.t. diffs=.t. $end
 $DATA
TS1a_hfd_irc200_all_revmov.pdb
C1
P     15.0    -0.04200   0.00800  -0.02300 
O      8.0    -0.13000   0.35300   1.49100 
O      8.0     0.91900   0.74400  -0.82300 
F      9.0     0.33400  -1.50400   0.10600 
O      8.0    -1.47700  -0.16000  -0.60000 
C      6.0    -2.15200   0.85600  -1.37700 
H      1.0    -2.16600   1.80100  -0.83700 
H      1.0    -1.64300   0.95000  -2.32700 
H      1.0    -3.14800   0.46700  -1.53000 
C      6.0     0.03600   1.68900   2.01900 
H      1.0    -0.18400   1.59700   3.07300 
H      1.0     1.06900   1.98300   1.88100 
H      1.0    -0.64400   2.38100   1.52500 
O      8.0    -1.92600   3.31600   0.37800 
H      1.0    -1.75100   4.19000   0.05100 
 $END


