 $system timlim=999888777
         mwords=100 $end
 $contrl exetyp=run
         runtyp=energy scftyp=rhf
         icharg=-1 mult=1 units=angs coord=unique
         maxit=50 ispher=1 qmttol=1d-6 icut=12 itol=22 $end
 $scf    dirscf=.t. diis=.t. soscf=.f.
         fdiff=.f. conv=1d-6
         npreo(1)=0,-1,1,9999 $end
 $elmom  iemom=3 iemint=0 iamm=9 cum=.t. ibond=0 $end
 $basis  gbasis=n311 ngauss=6
         ndfunc=1 npfunc=1 diffsp=.t. diffs=.t. $end
 $DATA
TS1a_hfd_irc200_all_revmov.pdb
C1
P     15.0    -0.04200   0.00500  -0.02200 
O      8.0    -0.12900   0.30200   1.50200 
O      8.0     0.91400   0.76600  -0.80300 
F      9.0     0.34400  -1.51000   0.06300 
O      8.0    -1.47700  -0.16000  -0.60000 
C      6.0    -2.15200   0.85600  -1.37700 
H      1.0    -2.15800   1.80000  -0.83500 
H      1.0    -1.64600   0.94600  -2.32900 
H      1.0    -3.14900   0.46900  -1.52600 
C      6.0     0.06300   1.61500   2.07600 
H      1.0    -0.16800   1.49100   3.12500 
H      1.0     1.10300   1.88800   1.95900 
H      1.0    -0.59800   2.33400   1.59800 
O      8.0    -1.84800   3.26600   0.41900 
H      1.0    -1.59300   4.11100   0.07000 
 $END


