 $system timlim=999888777
         mwords=100 $end
 $contrl exetyp=run
         runtyp=energy scftyp=rhf
         icharg=-1 mult=1 units=angs coord=unique
         maxit=50 ispher=1 qmttol=1d-6 icut=12 itol=22 $end
 $scf    dirscf=.t. diis=.t. soscf=.f.
         fdiff=.f. conv=1d-6
         npreo(1)=0,-1,1,9999 $end
 $elmom  iemom=3 iemint=0 iamm=9 cum=.t. ibond=0 $end
 $basis  gbasis=n311 ngauss=6
         ndfunc=1 npfunc=1 diffsp=.t. diffs=.t. $end
 $DATA
TS1a_hfd_irc200_all_revmov.pdb
C1
P     15.0    -0.04300   0.00100  -0.02000 
O      8.0    -0.12800   0.23500   1.51600 
O      8.0     0.90900   0.79100  -0.77500 
F      9.0     0.35400  -1.51500   0.00800 
O      8.0    -1.47800  -0.15900  -0.60100 
C      6.0    -2.15200   0.85600  -1.37700 
H      1.0    -2.15600   1.79600  -0.82900 
H      1.0    -1.64500   0.95000  -2.32900 
H      1.0    -3.15000   0.46800  -1.52900 
C      6.0     0.09800   1.51300   2.15000 
H      1.0    -0.13800   1.34700   3.19200 
H      1.0     1.14600   1.76400   2.04600 
H      1.0    -0.54300   2.26600   1.69900 
O      8.0    -1.75900   3.18700   0.48000 
H      1.0    -1.41800   3.99300   0.11300 
 $END


