 $system timlim=999888777
         mwords=100 $end
 $contrl exetyp=run
         runtyp=energy scftyp=rhf
         icharg=-1 mult=1 units=angs coord=unique
         maxit=50 ispher=1 qmttol=1d-6 icut=12 itol=22 $end
 $scf    dirscf=.t. diis=.t. soscf=.f.
         fdiff=.f. conv=1d-6
         npreo(1)=0,-1,1,9999 $end
 $elmom  iemom=3 iemint=0 iamm=9 cum=.t. ibond=0 $end
 $basis  gbasis=n311 ngauss=6
         ndfunc=1 npfunc=1 diffsp=.t. diffs=.t. $end
 $DATA
TS1a_hfd_irc200_all_revmov.pdb
C1
P     15.0    -0.04400  -0.00500  -0.01800 
O      8.0    -0.12700   0.16800   1.52600 
O      8.0     0.90600   0.81200  -0.74700 
F      9.0     0.36200  -1.52000  -0.04400 
O      8.0    -1.47900  -0.15800  -0.60200 
C      6.0    -2.15200   0.85600  -1.37700 
H      1.0    -2.16000   1.78900  -0.81900 
H      1.0    -1.63900   0.95900  -2.32500 
H      1.0    -3.14700   0.46400  -1.53900 
C      6.0     0.13200   1.40700   2.21800 
H      1.0    -0.10200   1.19700   3.25400 
H      1.0     1.18600   1.63900   2.12100 
H      1.0    -0.49500   2.19100   1.80200 
O      8.0    -1.68000   3.09700   0.54600 
H      1.0    -1.26900   3.86500   0.16800 
 $END


