 $system timlim=999888777
         mwords=100 $end
 $contrl exetyp=run
         runtyp=energy scftyp=rhf
         icharg=-1 mult=1 units=angs coord=unique
         maxit=50 ispher=1 qmttol=1d-6 icut=12 itol=22 $end
 $scf    dirscf=.t. diis=.t. soscf=.f.
         fdiff=.f. conv=1d-6
         npreo(1)=0,-1,1,9999 $end
 $elmom  iemom=3 iemint=0 iamm=9 cum=.t. ibond=0 $end
 $basis  gbasis=n311 ngauss=6
         ndfunc=1 npfunc=1 diffsp=.t. diffs=.t. $end
 $DATA
TS1a_hfd_irc200_all_revmov.pdb
C1
P     15.0    -0.04600  -0.01200  -0.01600 
O      8.0    -0.12600   0.09900   1.53500 
O      8.0     0.90500   0.82900  -0.71900 
F      9.0     0.36800  -1.52400  -0.09800 
O      8.0    -1.48000  -0.15600  -0.60300 
C      6.0    -2.15200   0.85600  -1.37700 
H      1.0    -2.16800   1.78100  -0.80900 
H      1.0    -1.63100   0.97100  -2.32000 
H      1.0    -3.14200   0.45800  -1.55300 
C      6.0     0.16800   1.29200   2.28500 
H      1.0    -0.06000   1.03700   3.31100 
H      1.0     1.22500   1.50900   2.18800 
H      1.0    -0.44700   2.10600   1.91000 
O      8.0    -1.60300   2.99400   0.61200 
H      1.0    -1.13300   3.72500   0.22800 
 $END


