 $system timlim=999888777
         mwords=100 $end
 $contrl exetyp=run
         runtyp=energy scftyp=rhf
         icharg=-1 mult=1 units=angs coord=unique
         maxit=50 ispher=1 qmttol=1d-6 icut=12 itol=22 $end
 $scf    dirscf=.t. diis=.t. soscf=.f.
         fdiff=.f. conv=1d-6
         npreo(1)=0,-1,1,9999 $end
 $elmom  iemom=3 iemint=0 iamm=9 cum=.t. ibond=0 $end
 $basis  gbasis=n311 ngauss=6
         ndfunc=1 npfunc=1 diffsp=.t. diffs=.t. $end
 $DATA
TS1a_hfd_irc200_all_revmov.pdb
C1
P     15.0    -0.04800  -0.01800  -0.01400 
O      8.0    -0.12400   0.03000   1.54000 
O      8.0     0.90600   0.84000  -0.69000 
F      9.0     0.37100  -1.52800  -0.14900 
O      8.0    -1.48100  -0.15400  -0.60400 
C      6.0    -2.15200   0.85600  -1.37700 
H      1.0    -2.18100   1.77300  -0.79800 
H      1.0    -1.62200   0.98700  -2.31200 
H      1.0    -3.13600   0.45100  -1.56900 
C      6.0     0.20300   1.17500   2.34600 
H      1.0    -0.01600   0.87200   3.36100 
H      1.0     1.26200   1.37900   2.24500 
H      1.0    -0.40100   2.01400   2.01700 
O      8.0    -1.52900   2.88200   0.67500 
H      1.0    -1.01200   3.57900   0.28900 
 $END


