 $system timlim=999888777
         mwords=100 $end
 $contrl exetyp=run
         runtyp=energy scftyp=rhf
         icharg=-1 mult=1 units=angs coord=unique
         maxit=50 ispher=1 qmttol=1d-6 icut=12 itol=22 $end
 $scf    dirscf=.t. diis=.t. soscf=.f.
         fdiff=.f. conv=1d-6
         npreo(1)=0,-1,1,9999 $end
 $elmom  iemom=3 iemint=0 iamm=9 cum=.t. ibond=0 $end
 $basis  gbasis=n311 ngauss=6
         ndfunc=1 npfunc=1 diffsp=.t. diffs=.t. $end
 $DATA
TS1a_hfd_irc200_all_revmov.pdb
C1
P     15.0    -0.04900  -0.02500  -0.01100 
O      8.0    -0.12200  -0.03700   1.54400 
O      8.0     0.90900   0.84800  -0.66400 
F      9.0     0.37200  -1.53200  -0.19600 
O      8.0    -1.48200  -0.15300  -0.60600 
C      6.0    -2.15200   0.85600  -1.37700 
H      1.0    -2.19600   1.76300  -0.78600 
H      1.0    -1.60900   1.00500  -2.30300 
H      1.0    -3.12800   0.44200  -1.58900 
C      6.0     0.23600   1.06000   2.39800 
H      1.0     0.03100   0.71000   3.40100 
H      1.0     1.29700   1.25400   2.29000 
H      1.0    -0.36100   1.92000   2.11900 
O      8.0    -1.45700   2.76600   0.72900 
H      1.0    -0.90500   3.43600   0.34500 
 $END


