 $system timlim=999888777
         mwords=100 $end
 $contrl exetyp=run
         runtyp=energy scftyp=rhf
         icharg=-1 mult=1 units=angs coord=unique
         maxit=50 ispher=1 qmttol=1d-6 icut=12 itol=22 $end
 $scf    dirscf=.t. diis=.t. soscf=.f.
         fdiff=.f. conv=1d-6
         npreo(1)=0,-1,1,9999 $end
 $elmom  iemom=3 iemint=0 iamm=9 cum=.t. ibond=0 $end
 $basis  gbasis=n311 ngauss=6
         ndfunc=1 npfunc=1 diffsp=.t. diffs=.t. $end
 $DATA
TS1a_hfd_irc200_all_revmov.pdb
C1
P     15.0    -0.05000  -0.03000  -0.00900 
O      8.0    -0.11900  -0.10100   1.54500 
O      8.0     0.91700   0.84700  -0.64300 
F      9.0     0.36900  -1.53500  -0.24000 
O      8.0    -1.48400  -0.15100  -0.60700 
C      6.0    -2.15200   0.85600  -1.37700 
H      1.0    -2.22000   1.75300  -0.77500 
H      1.0    -1.59400   1.03000  -2.28900 
H      1.0    -3.11700   0.43100  -1.61700 
C      6.0     0.27000   0.94500   2.44400 
H      1.0     0.08500   0.54800   3.43300 
H      1.0     1.33000   1.13700   2.32300 
H      1.0    -0.32200   1.82300   2.21900 
O      8.0    -1.38200   2.64500   0.77300 
H      1.0    -0.80500   3.29700   0.39200 
 $END


