 $system timlim=999888777
         mwords=100 $end
 $contrl exetyp=run
         runtyp=energy scftyp=rhf
         icharg=-1 mult=1 units=angs coord=unique
         maxit=50 ispher=1 qmttol=1d-6 icut=12 itol=22 $end
 $scf    dirscf=.t. diis=.t. soscf=.f.
         fdiff=.f. conv=1d-6
         npreo(1)=0,-1,1,9999 $end
 $elmom  iemom=3 iemint=0 iamm=9 cum=.t. ibond=0 $end
 $basis  gbasis=n311 ngauss=6
         ndfunc=1 npfunc=1 diffsp=.t. diffs=.t. $end
 $DATA
TS1a_hfd_irc200_all_revmov.pdb
C1
P     15.0    -0.05200  -0.03800  -0.00600 
O      8.0    -0.10700  -0.19000   1.54500 
O      8.0     0.93700   0.82900  -0.62200 
F      9.0     0.35300  -1.54500  -0.29500 
O      8.0    -1.48600  -0.14700  -0.61000 
C      6.0    -2.15200   0.85600  -1.37700 
H      1.0    -2.27200   1.73200  -0.75600 
H      1.0    -1.56300   1.08200  -2.25900 
H      1.0    -3.09100   0.40700  -1.67400 
C      6.0     0.32700   0.78100   2.49800 
H      1.0     0.19400   0.30800   3.46300 
H      1.0     1.37800   0.99300   2.34000 
H      1.0    -0.27200   1.67100   2.37200 
O      8.0    -1.25000   2.45200   0.80800 
H      1.0    -0.65100   3.08900   0.43800 
 $END


