 $system timlim=999888777
         mwords=100 $end
 $contrl exetyp=run
         runtyp=energy scftyp=rhf
         icharg=-1 mult=1 units=angs coord=unique
         maxit=50 ispher=1 qmttol=1d-6 icut=12 itol=22 $end
 $scf    dirscf=.t. diis=.t. soscf=.f.
         fdiff=.f. conv=1d-6
         npreo(1)=0,-1,1,9999 $end
 $elmom  iemom=3 iemint=0 iamm=9 cum=.t. ibond=0 $end
 $basis  gbasis=n311 ngauss=6
         ndfunc=1 npfunc=1 diffsp=.t. diffs=.t. $end
 $DATA
TS1a_hfd_irc200_all_revmov.pdb
C1
P     15.0    -0.05100  -0.03800  -0.00600 
O      8.0    -0.08300  -0.25200   1.54300 
O      8.0     0.97100   0.78700  -0.63100 
F      9.0     0.32200  -1.55500  -0.32600 
O      8.0    -1.48900  -0.14300  -0.61400 
C      6.0    -2.15200   0.85600  -1.37700 
H      1.0    -2.34900   1.70200  -0.74100 
H      1.0    -1.52700   1.15000  -2.21200 
H      1.0    -3.05100   0.38100  -1.74900 
C      6.0     0.39100   0.65900   2.52500 
H      1.0     0.34600   0.11700   3.46300 
H      1.0     1.42100   0.92200   2.31100 
H      1.0    -0.23000   1.53700   2.51000 
O      8.0    -1.09300   2.27200   0.79100 
H      1.0    -0.48400   2.90100   0.42500 
 $END


