 $system timlim=999888777
         mwords=100 $end
 $contrl exetyp=run
         runtyp=energy scftyp=rhf
         icharg=-1 mult=1 units=angs coord=unique
         maxit=50 ispher=1 qmttol=1d-6 icut=12 itol=22 $end
 $scf    dirscf=.t. diis=.t. soscf=.f.
         fdiff=.f. conv=1d-6
         npreo(1)=0,-1,1,9999 $end
 $elmom  iemom=3 iemint=0 iamm=9 cum=.t. ibond=0 $end
 $basis  gbasis=n311 ngauss=6
         ndfunc=1 npfunc=1 diffsp=.t. diffs=.t. $end
 $DATA
TS1a_hfd_irc200_all_revmov.pdb
C1
P     15.0    -0.04800  -0.02800  -0.00900 
O      8.0    -0.05800  -0.26700   1.54100 
O      8.0     0.99600   0.75600  -0.65700 
F      9.0     0.30200  -1.56000  -0.33200 
O      8.0    -1.49100  -0.14000  -0.61600 
C      6.0    -2.15200   0.85600  -1.37700 
H      1.0    -2.38900   1.68900  -0.73900 
H      1.0    -1.51300   1.18400  -2.18900 
H      1.0    -3.03000   0.36900  -1.78400 
C      6.0     0.43800   0.62800   2.52300 
H      1.0     0.44500   0.06100   3.44700 
H      1.0     1.45000   0.92200   2.27400 
H      1.0    -0.19800   1.49500   2.56400 
O      8.0    -0.99600   2.18700   0.75100 
H      1.0    -0.38600   2.81200   0.38100 
 $END


