 $system timlim=999888777
         mwords=100 $end
 $contrl exetyp=run
         runtyp=energy scftyp=rhf
         icharg=-1 mult=1 units=angs coord=unique
         maxit=50 ispher=1 qmttol=1d-6 icut=12 itol=22 $end
 $scf    dirscf=.t. diis=.t. soscf=.f.
         fdiff=.f. conv=1d-6
         npreo(1)=0,-1,1,9999 $end
 $elmom  iemom=3 iemint=0 iamm=9 cum=.t. ibond=0 $end
 $basis  gbasis=n311 ngauss=6
         ndfunc=1 npfunc=1 diffsp=.t. diffs=.t. $end
 $DATA
TS1a_hfd_irc200_all_revmov.pdb
C1
P     15.0    -0.03700   0.01200  -0.02200 
O      8.0     0.01400  -0.27400   1.53200 
O      8.0     1.05000   0.68400  -0.74000 
F      9.0     0.26100  -1.56000  -0.33400 
O      8.0    -1.49500  -0.13400  -0.62000 
C      6.0    -2.15200   0.85600  -1.37700 
H      1.0    -2.45000   1.67100  -0.74300 
H      1.0    -1.50100   1.22700  -2.16000 
H      1.0    -3.00400   0.36000  -1.82700 
C      6.0     0.55700   0.60400   2.49100 
H      1.0     0.65700   0.01700   3.39800 
H      1.0     1.53700   0.94400   2.17700 
H      1.0    -0.08900   1.45100   2.62900 
O      8.0    -0.79400   2.02300   0.63900 
H      1.0    -0.18100   2.63100   0.24900 
 $END


