 $system timlim=999888777
         mwords=100 $end
 $contrl exetyp=run
         runtyp=energy scftyp=rhf
         icharg=-1 mult=1 units=angs coord=unique
         maxit=50 ispher=1 qmttol=1d-6 icut=12 itol=22 $end
 $scf    dirscf=.t. diis=.t. soscf=.f.
         fdiff=.f. conv=1d-6
         npreo(1)=0,-1,1,9999 $end
 $elmom  iemom=3 iemint=0 iamm=9 cum=.t. ibond=0 $end
 $basis  gbasis=n311 ngauss=6
         ndfunc=1 npfunc=1 diffsp=.t. diffs=.t. $end
 $DATA
TS1a_hfd_irc200_all_revmov.pdb
C1
P     15.0    -0.02800   0.04200  -0.03200 
O      8.0     0.05800  -0.27200   1.52600 
O      8.0     1.07700   0.64700  -0.79200 
F      9.0     0.24300  -1.55700  -0.33200 
O      8.0    -1.49700  -0.13100  -0.62200 
C      6.0    -2.15200   0.85600  -1.37700 
H      1.0    -2.46800   1.67000  -0.74900 
H      1.0    -1.50100   1.23600  -2.15600 
H      1.0    -3.00100   0.36000  -1.83600 
C      6.0     0.62700   0.60600   2.46400 
H      1.0     0.76500   0.02000   3.36800 
H      1.0     1.59400   0.95700   2.12100 
H      1.0    -0.01700   1.44900   2.64000 
O      8.0    -0.69100   1.93900   0.57200 
H      1.0    -0.08100   2.53800   0.16900 
 $END


