 $system timlim=999888777
         mwords=100 $end
 $contrl exetyp=run
         runtyp=energy scftyp=rhf
         icharg=-1 mult=1 units=angs coord=unique
         maxit=50 ispher=1 qmttol=1d-6 icut=12 itol=22 $end
 $scf    dirscf=.t. diis=.t. soscf=.f.
         fdiff=.f. conv=1d-6
         npreo(1)=0,-1,1,9999 $end
 $elmom  iemom=3 iemint=0 iamm=9 cum=.t. ibond=0 $end
 $basis  gbasis=n311 ngauss=6
         ndfunc=1 npfunc=1 diffsp=.t. diffs=.t. $end
 $DATA
TS1a_hfd_irc200_all_revmov.pdb
C1
P     15.0    -0.01800   0.07200  -0.04200 
O      8.0     0.10300  -0.26800   1.52100 
O      8.0     1.10300   0.60800  -0.84300 
F      9.0     0.22400  -1.55200  -0.32800 
O      8.0    -1.49800  -0.12800  -0.62400 
C      6.0    -2.15200   0.85600  -1.37700 
H      1.0    -2.48000   1.67100  -0.75300 
H      1.0    -1.50200   1.24300  -2.15500 
H      1.0    -3.00000   0.36300  -1.84100 
C      6.0     0.69600   0.60800   2.43900 
H      1.0     0.86700   0.02500   3.34000 
H      1.0     1.65000   0.96800   2.06900 
H      1.0     0.05700   1.44900   2.64700 
O      8.0    -0.59500   1.85300   0.50500 
H      1.0     0.01600   2.44300   0.08700 
 $END


