 $system timlim=999888777
         mwords=100 $end
 $contrl exetyp=run
         runtyp=energy scftyp=rhf
         icharg=-1 mult=1 units=angs coord=unique
         maxit=50 ispher=1 qmttol=1d-6 icut=12 itol=22 $end
 $scf    dirscf=.t. diis=.t. soscf=.f.
         fdiff=.f. conv=1d-6
         npreo(1)=0,-1,1,9999 $end
 $elmom  iemom=3 iemint=0 iamm=9 cum=.t. ibond=0 $end
 $basis  gbasis=n311 ngauss=6
         ndfunc=1 npfunc=1 diffsp=.t. diffs=.t. $end
 $DATA
TS1a_hfd_irc200_all_revmov.pdb
C1
P     15.0    -0.00400   0.09600  -0.04700 
O      8.0     0.14500  -0.26800   1.52400 
O      8.0     1.13100   0.56200  -0.88400 
F      9.0     0.20200  -1.54600  -0.31500 
O      8.0    -1.50000  -0.12600  -0.62600 
C      6.0    -2.15200   0.85600  -1.37700 
H      1.0    -2.49800   1.66900  -0.75700 
H      1.0    -1.50200   1.25400  -2.15100 
H      1.0    -2.99600   0.36600  -1.85100 
C      6.0     0.75800   0.60300   2.42600 
H      1.0     0.96100   0.02100   3.32000 
H      1.0     1.69900   0.97500   2.03400 
H      1.0     0.12100   1.44200   2.66800 
O      8.0    -0.49800   1.76700   0.44200 
H      1.0     0.11600   2.34300   0.01100 
 $END


