 $system timlim=999888777
         mwords=100 $end
 $contrl exetyp=run
         runtyp=energy scftyp=rhf
         icharg=-1 mult=1 units=angs coord=unique
         maxit=50 ispher=1 qmttol=1d-6 icut=12 itol=22 $end
 $scf    dirscf=.t. diis=.t. soscf=.f.
         fdiff=.f. conv=1d-6
         npreo(1)=0,-1,1,9999 $end
 $elmom  iemom=3 iemint=0 iamm=9 cum=.t. ibond=0 $end
 $basis  gbasis=n311 ngauss=6
         ndfunc=1 npfunc=1 diffsp=.t. diffs=.t. $end
 $DATA
TS1a_hfd_irc200_all_revmov.pdb
C1
P     15.0     0.00500   0.07200  -0.03100 
O      8.0     0.14000  -0.27300   1.55800 
O      8.0     1.17200   0.44300  -0.88200 
F      9.0     0.12900  -1.57700  -0.23700 
O      8.0    -1.50200  -0.12400  -0.62800 
C      6.0    -2.15200   0.85600  -1.37700 
H      1.0    -2.54900   1.64500  -0.75100 
H      1.0    -1.49100   1.29700  -2.11700 
H      1.0    -2.96600   0.35700  -1.89500 
C      6.0     0.73900   0.59300   2.47200 
H      1.0     0.97500  -0.00100   3.35000 
H      1.0     1.66100   1.01000   2.08100 
H      1.0     0.08000   1.40600   2.75000 
O      8.0    -0.39700   1.72000   0.38300 
H      1.0     0.24700   2.24800  -0.06400 
 $END


