 $system timlim=999888777
         mwords=100 $end
 $contrl exetyp=run
         runtyp=energy scftyp=rhf
         icharg=-1 mult=1 units=angs coord=unique
         maxit=50 ispher=1 qmttol=1d-6 icut=12 itol=22 $end
 $scf    dirscf=.t. diis=.t. soscf=.f.
         fdiff=.f. conv=1d-6
         npreo(1)=0,-1,1,9999 $end
 $elmom  iemom=3 iemint=0 iamm=9 cum=.t. ibond=0 $end
 $basis  gbasis=n311 ngauss=6
         ndfunc=1 npfunc=1 diffsp=.t. diffs=.t. $end
 $DATA
TS1a_hfd_irc200_all_revmov.pdb
C1
P     15.0     0.00300   0.04200  -0.01800 
O      8.0     0.08700  -0.17900   1.59800 
O      8.0     1.20600   0.27300  -0.87000 
F      9.0     0.03600  -1.62000  -0.08200 
O      8.0    -1.50200  -0.12300  -0.62900 
C      6.0    -2.15200   0.85600  -1.37700 
H      1.0    -2.55700   1.64000  -0.75100 
H      1.0    -1.49300   1.30500  -2.11300 
H      1.0    -2.96200   0.35400  -1.89900 
C      6.0     0.60500   0.75900   2.48700 
H      1.0     0.82400   0.22200   3.40600 
H      1.0     1.52500   1.20000   2.11800 
H      1.0    -0.10000   1.55400   2.69300 
O      8.0    -0.30700   1.73800   0.24600 
H      1.0     0.37500   2.18700  -0.23000 
 $END


