 $system timlim=999888777
         mwords=100 $end
 $contrl exetyp=run
         runtyp=energy scftyp=rhf
         icharg=-1 mult=1 units=angs coord=unique
         maxit=50 ispher=1 qmttol=1d-6 icut=12 itol=22 $end
 $scf    dirscf=.t. diis=.t. soscf=.f.
         fdiff=.f. conv=1d-6
         npreo(1)=0,-1,1,9999 $end
 $elmom  iemom=3 iemint=0 iamm=9 cum=.t. ibond=0 $end
 $basis  gbasis=n311 ngauss=6
         ndfunc=1 npfunc=1 diffsp=.t. diffs=.t. $end
 $DATA
TS1a_hfd_irc200_all_revmov.pdb
C1
P     15.0     0.00300   0.03200  -0.01400 
O      8.0     0.06600  -0.14300   1.60900 
O      8.0     1.21600   0.21600  -0.86200 
F      9.0     0.00400  -1.63000  -0.03100 
O      8.0    -1.50200  -0.12300  -0.62900 
C      6.0    -2.15200   0.85600  -1.37700 
H      1.0    -2.54600   1.64800  -0.75200 
H      1.0    -1.49700   1.29600  -2.12200 
H      1.0    -2.97000   0.35700  -1.88800 
C      6.0     0.55700   0.82100   2.48500 
H      1.0     0.75400   0.30800   3.42300 
H      1.0     1.48500   1.25800   2.13000 
H      1.0    -0.15700   1.61700   2.65300 
O      8.0    -0.27500   1.74100   0.19600 
H      1.0     0.42100   2.16000  -0.28800 
 $END


