 $system timlim=999888777
         mwords=100 $end
 $contrl exetyp=run
         runtyp=energy scftyp=rhf
         icharg=-1 mult=1 units=angs coord=unique
         maxit=50 ispher=1 qmttol=1d-6 icut=12 itol=22 $end
 $scf    dirscf=.t. diis=.t. soscf=.f.
         fdiff=.f. conv=1d-6
         npreo(1)=0,-1,1,9999 $end
 $elmom  iemom=3 iemint=0 iamm=9 cum=.t. ibond=0 $end
 $basis  gbasis=n311 ngauss=6
         ndfunc=1 npfunc=1 diffsp=.t. diffs=.t. $end
 $DATA
TS1a_hfd_irc200_all_revmov.pdb
C1
P     15.0     0.00100   0.01800  -0.00800 
O      8.0     0.03500  -0.08200   1.62200 
O      8.0     1.23000   0.12100  -0.84800 
F      9.0    -0.04700  -1.64200   0.05400 
O      8.0    -1.50200  -0.12300  -0.62900 
C      6.0    -2.15200   0.85600  -1.37700 
H      1.0    -2.52300   1.66100  -0.75700 
H      1.0    -1.50700   1.27900  -2.14000 
H      1.0    -2.98700   0.36100  -1.86500 
C      6.0     0.48100   0.92400   2.47500 
H      1.0     0.63800   0.45500   3.44300 
H      1.0     1.42100   1.35100   2.14200 
H      1.0    -0.24200   1.72200   2.57400 
O      8.0    -0.22200   1.74200   0.11400 
H      1.0     0.49400   2.11100  -0.38100 
 $END


