 $system timlim=999888777
         mwords=100 $end
 $contrl exetyp=run
         runtyp=energy scftyp=rhf
         icharg=-1 mult=1 units=angs coord=unique
         maxit=50 ispher=1 qmttol=1d-6 icut=12 itol=22 $end
 $scf    dirscf=.t. diis=.t. soscf=.f.
         fdiff=.f. conv=1d-6
         npreo(1)=0,-1,1,9999 $end
 $elmom  iemom=3 iemint=0 iamm=9 cum=.t. ibond=0 $end
 $basis  gbasis=n311 ngauss=6
         ndfunc=1 npfunc=1 diffsp=.t. diffs=.t. $end
 $DATA
TS1a_hfd_irc200_all_revmov.pdb
C1
P     15.0     0.00100   0.00900  -0.00400 
O      8.0     0.01700  -0.03900   1.62900 
O      8.0     1.23700   0.05800  -0.83700 
F      9.0    -0.08000  -1.64600   0.11100 
O      8.0    -1.50300  -0.12200  -0.62900 
C      6.0    -2.15200   0.85600  -1.37700 
H      1.0    -2.50600   1.67200  -0.75800 
H      1.0    -1.51500   1.26500  -2.15300 
H      1.0    -3.00000   0.36600  -1.84600 
C      6.0     0.43200   0.99700   2.46200 
H      1.0     0.56200   0.55900   3.44800 
H      1.0     1.37800   1.42000   2.14300 
H      1.0    -0.29900   1.79200   2.51500 
O      8.0    -0.18500   1.74000   0.05800 
H      1.0     0.54300   2.07500  -0.44400 
 $END


