 $system timlim=999888777
         mwords=100 $end
 $contrl exetyp=run
         runtyp=energy scftyp=rhf
         icharg=-1 mult=1 units=angs coord=unique
         maxit=50 ispher=1 qmttol=1d-6 icut=12 itol=22 $end
 $scf    dirscf=.t. diis=.t. soscf=.f.
         fdiff=.f. conv=1d-6
         npreo(1)=0,-1,1,9999 $end
 $elmom  iemom=3 iemint=0 iamm=9 cum=.t. ibond=0 $end
 $basis  gbasis=n311 ngauss=6
         ndfunc=1 npfunc=1 diffsp=.t. diffs=.t. $end
 $DATA
TS1a_hfd_irc200_all_revmov.pdb
C1
P     15.0     0.00000   0.00300  -0.00100 
O      8.0     0.00800  -0.01900   1.63100 
O      8.0     1.24000   0.02700  -0.83100 
F      9.0    -0.09700  -1.64900   0.13900 
O      8.0    -1.50300  -0.12200  -0.62900 
C      6.0    -2.15200   0.85600  -1.37700 
H      1.0    -2.49500   1.67700  -0.76100 
H      1.0    -1.51800   1.25700  -2.16100 
H      1.0    -3.00700   0.36800  -1.83700 
C      6.0     0.40800   1.03100   2.45300 
H      1.0     0.52500   0.61000   3.44800 
H      1.0     1.35700   1.45300   2.14200 
H      1.0    -0.32600   1.82600   2.48500 
O      8.0    -0.16600   1.73800   0.03000 
H      1.0     0.56700   2.05400  -0.47400 
 $END


