 $system timlim=999888777
         mwords=100 $end
 $contrl exetyp=run
         runtyp=energy scftyp=rhf
         icharg=-1 mult=1 units=angs coord=unique
         maxit=50 ispher=1 qmttol=1d-6 icut=12 itol=22 $end
 $scf    dirscf=.t. diis=.t. soscf=.f.
         fdiff=.f. conv=1d-6
         npreo(1)=0,-1,1,9999 $end
 $elmom  iemom=3 iemint=0 iamm=9 cum=.t. ibond=0 $end
 $basis  gbasis=n311 ngauss=6
         ndfunc=1 npfunc=1 diffsp=.t. diffs=.t. $end
 $DATA
TS1a_hfd_irc200_all_revmov.pdb
C1
P     15.0     0.00100   0.00200  -0.00100 
O      8.0     0.00600  -0.01200   1.63200 
O      8.0     1.24100   0.01800  -0.83000 
F      9.0    -0.10200  -1.64900   0.14700 
O      8.0    -1.50300  -0.12200  -0.62900 
C      6.0    -2.15200   0.85600  -1.37700 
H      1.0    -2.49300   1.67800  -0.76100 
H      1.0    -1.51900   1.25500  -2.16200 
H      1.0    -3.00800   0.36800  -1.83400 
C      6.0     0.40200   1.04200   2.45000 
H      1.0     0.51600   0.62500   3.44800 
H      1.0     1.35300   1.46300   2.14000 
H      1.0    -0.33300   1.83600   2.47500 
O      8.0    -0.16100   1.73700   0.02300 
H      1.0     0.57300   2.04900  -0.48200 
 $END


