 $system timlim=999888777
         mwords=100 $end
 $contrl exetyp=run
         runtyp=energy scftyp=rhf
         icharg=-1 mult=1 units=angs coord=unique
         maxit=50 ispher=1 qmttol=1d-6 icut=12 itol=22 $end
 $scf    dirscf=.t. diis=.t. soscf=.f.
         fdiff=.f. conv=1d-6
         npreo(1)=0,-1,1,9999 $end
 $elmom  iemom=3 iemint=0 iamm=9 cum=.t. ibond=0 $end
 $basis  gbasis=n311 ngauss=6
         ndfunc=1 npfunc=1 diffsp=.t. diffs=.t. $end
 $DATA
TS1a_hfd_irc200_all_revmov.pdb
C1
P     15.0     0.00000   0.00100  -0.00000 
O      8.0     0.00300  -0.00300   1.63300 
O      8.0     1.24200   0.00400  -0.82700 
F      9.0    -0.11000  -1.64800   0.16000 
O      8.0    -1.50300  -0.12200  -0.62900 
C      6.0    -2.15200   0.85600  -1.37700 
H      1.0    -2.48800   1.68100  -0.76200 
H      1.0    -1.52100   1.25100  -2.16500 
H      1.0    -3.01100   0.36900  -1.83000 
C      6.0     0.39100   1.05800   2.44600 
H      1.0     0.50000   0.64900   3.44700 
H      1.0     1.34400   1.47800   2.13900 
H      1.0    -0.34500   1.85100   2.46000 
O      8.0    -0.15300   1.73500   0.01000 
H      1.0     0.58400   2.04000  -0.49600 
 $END


